####################################################################### 
# 
# This file contains crystal structure data downloaded from the 
# Cambridge Structural Database (CSD) hosted by the Cambridge 
# Crystallographic Data Centre (CCDC).
# 
# Full information about CCDC data access policies and citation 
# guidelines are available at http://www.ccdc.cam.ac.uk/access/V1 
# 
# Audit and citation data items may have been added by the CCDC. 
# Please retain this information to preserve the provenance of 
# this file and to allow appropriate attribution of the data. 
# 
#######################################################################

data_1-140K
_audit_block_doi                 10.5517/ccdc.csd.cc1153z9
_database_code_depnum_ccdc_archive 'CCDC 958240'
loop_
_citation_id
_citation_doi
_citation_year
1 10.1002/chem.201303425 2014
_audit_update_record             
;
2013-08-30 deposited with the CCDC.	2022-07-19 downloaded from the CCDC.
;

_audit_creation_method           SHELXL-97
_chemical_name_systematic        
; 
 ? 
;
_chemical_name_common            ?
_chemical_melting_point          ?
_chemical_formula_moiety         ?
_chemical_formula_sum            'C3 H7 Mg N O6'
_chemical_formula_weight         177.41

loop_
_atom_type_symbol
_atom_type_description
_atom_type_scat_dispersion_real
_atom_type_scat_dispersion_imag
_atom_type_scat_source
C C 0.0033 0.0016 'International Tables Vol C Tables 4.2.6.8 and 6.1.1.4'
H H 0.0000 0.0000 'International Tables Vol C Tables 4.2.6.8 and 6.1.1.4'
N N 0.0061 0.0033 'International Tables Vol C Tables 4.2.6.8 and 6.1.1.4'
O O 0.0106 0.0060 'International Tables Vol C Tables 4.2.6.8 and 6.1.1.4'
Mg Mg 0.0486 0.0363 'International Tables Vol C Tables 4.2.6.8 and 6.1.1.4'

_symmetry_cell_setting           Hexagonal
_symmetry_space_group_name_H-M   'P 6(3)'

loop_
_symmetry_equiv_pos_as_xyz
'x, y, z'
'-y, x-y, z'
'-x+y, -x, z'
'-x, -y, z+1/2'
'y, -x+y, z+1/2'
'x-y, x, z+1/2'

_cell_length_a                   12.5028(2)
_cell_length_b                   12.5028(2)
_cell_length_c                   8.2564(2)
_cell_angle_alpha                90.00
_cell_angle_beta                 90.00
_cell_angle_gamma                120.00
_cell_volume                     1117.73(4)
_cell_formula_units_Z            6
_cell_measurement_temperature    140
_cell_measurement_reflns_used    12842
_cell_measurement_theta_min      3.395
_cell_measurement_theta_max      30.999

_exptl_crystal_description       'hexagonal block'
_exptl_crystal_colour            colorless
_exptl_crystal_size_max          0.69
_exptl_crystal_size_mid          0.65
_exptl_crystal_size_min          0.41
_exptl_crystal_density_meas      ?
_exptl_crystal_density_diffrn    1.581
_exptl_crystal_density_method    'not measured'
_exptl_crystal_F_000             552
_exptl_absorpt_coefficient_mu    0.225
_exptl_absorpt_correction_type   multi-scan
_exptl_absorpt_correction_T_min  0.652
_exptl_absorpt_correction_T_max  0.916
_exptl_absorpt_process_details   
;
multi-scan from symmetry-related measurements 
 Sortav (Blessing 1995, 1997)
;

_exptl_special_details           
; 
 ? 
;

_diffrn_ambient_temperature      140
_diffrn_radiation_wavelength     0.71073
_diffrn_radiation_type           MoK\a
_diffrn_radiation_source         'fine-focus sealed tube'
_diffrn_radiation_monochromator  graphite
_diffrn_measurement_device_type  'NONIUS KappaCCD'
_diffrn_measurement_method       CCD
_diffrn_detector_area_resol_mean 9
_diffrn_standards_number         ?
_diffrn_standards_interval_count ?
_diffrn_standards_interval_time  ?
_diffrn_standards_decay_%        0
_diffrn_reflns_number            18695
_diffrn_reflns_av_R_equivalents  0.0497
_diffrn_reflns_av_sigmaI/netI    0.0205
_diffrn_reflns_limit_h_min       -17
_diffrn_reflns_limit_h_max       17
_diffrn_reflns_limit_k_min       -17
_diffrn_reflns_limit_k_max       16
_diffrn_reflns_limit_l_min       -11
_diffrn_reflns_limit_l_max       11
_diffrn_reflns_theta_min         3.76
_diffrn_reflns_theta_max         29.56
_reflns_number_total             2097
_reflns_number_gt                1817
_reflns_threshold_expression     >2sigma(I)

_computing_data_collection       'KappaCCD (Nonius B. V., 1998)'
_computing_cell_refinement       'HKL Scalepack (Otwinowski & Minor, 1997)'
_computing_data_reduction        
'HKL Denzo (Otwinowski & Minor, 1997) & maXus (Mackay et al., 1998)'
_computing_structure_solution    'SHELXS-97 (Sheldrick, 1997)'
_computing_structure_refinement  'SHELXL-97 (Sheldrick, 1997)'
_computing_molecular_graphics    'Bruker SHELXTL V5.1 (Sheldrick, 1998)'
_computing_publication_material  'SHELXL-97 (Sheldrick, 1997)'

_refine_special_details          
; 
 Refinement of F^2^ against ALL reflections.  The weighted R-factor wR and 
 goodness of fit S are based on F^2^, conventional R-factors R are based 
 on F, with F set to zero for negative F^2^. The threshold expression of 
 F^2^ > 2sigma(F^2^) is used only for calculating R-factors(gt) etc. and is 
 not relevant to the choice of reflections for refinement.  R-factors based 
 on F^2^ are statistically about twice as large as those based on F, and R- 
 factors based on ALL data will be even larger. 
;

_refine_ls_structure_factor_coef Fsqd
_refine_ls_matrix_type           full
_refine_ls_weighting_scheme      calc
_refine_ls_weighting_details     
'calc w=1/[\s^2^(Fo^2^)+(0.0448P)^2^+0.3961P] where P=(Fo^2^+2Fc^2^)/3'
_atom_sites_solution_primary     direct
_atom_sites_solution_secondary   difmap
_atom_sites_solution_hydrogens   difmap
_refine_ls_hydrogen_treatment    constr.
_refine_ls_extinction_method     SHELXL
_refine_ls_extinction_coef       0.068(4)
_refine_ls_extinction_expression Fc^*^=kFc[1+0.001xFc^2^\l^3^/sin(2\q)]^-1/4^
_refine_ls_abs_structure_details 'Flack H D (1983), Acta Cryst. A39, 876-881'
_refine_ls_abs_structure_Flack   0.00
_refine_ls_number_reflns         2097
_refine_ls_number_parameters     113
_refine_ls_number_restraints     10
_refine_ls_R_factor_all          0.0403
_refine_ls_R_factor_gt           0.0336
_refine_ls_wR_factor_ref         0.0990
_refine_ls_wR_factor_gt          0.0958
_refine_ls_goodness_of_fit_ref   1.079
_refine_ls_restrained_S_all      1.078
_refine_ls_shift/su_max          0.000
_refine_ls_shift/su_mean         0.000

loop_
_atom_site_label
_atom_site_type_symbol
_atom_site_fract_x
_atom_site_fract_y
_atom_site_fract_z
_atom_site_U_iso_or_equiv
_atom_site_adp_type
_atom_site_occupancy
_atom_site_symmetry_multiplicity
_atom_site_calc_flag
_atom_site_refinement_flags
_atom_site_disorder_assembly
_atom_site_disorder_group
Mg1 Mg 0.33573(4) 0.33092(4) 0.58645(11) 0.01117(15) Uani 1 1 d . . .
O1 O 0.42194(11) 0.26090(11) 0.44251(13) 0.0161(3) Uani 1 1 d . . .
O2 O 0.42615(11) 0.15359(11) 0.22940(14) 0.0177(3) Uani 1 1 d . . .
O3 O 0.39947(11) 0.48643(10) 0.43847(13) 0.0165(3) Uani 1 1 d . . .
O4 O 0.50476(10) 0.59965(11) 0.22581(13) 0.0159(3) Uani 1 1 d . . .
O5 O 0.17496(10) 0.23647(10) 0.44993(13) 0.0160(3) Uani 1 1 d . . .
O6 O 0.07201(11) 0.24838(10) 0.23690(13) 0.0165(3) Uani 1 1 d . . .
C1 C 0.37306(16) 0.18728(18) 0.3262(3) 0.0268(5) Uani 1 1 d . . .
H1 H 0.2869 0.1542 0.3110 0.032 Uiso 1 1 calc R . .
C2 C 0.47104(16) 0.51132(16) 0.3201(3) 0.0199(4) Uani 1 1 d . . .
H2 H 0.5024 0.4572 0.3008 0.024 Uiso 1 1 calc R . .
C3 C 0.13780(16) 0.29288(14) 0.3604(2) 0.0155(4) Uani 1 1 d . . .
H3 H 0.1615 0.3754 0.3888 0.019 Uiso 1 1 calc R . .
N1 N 0.6667 0.3333 0.5370(4) 0.0241(6) Uani 1 3 d SD . .
H11 H 0.5889(8) 0.309(2) 0.5014(13) 0.029 Uiso 1 1 d D . .
H12 H 0.6667 0.3333 0.6473(7) 0.029 Uiso 1 3 d SD . .
N2 N 0.3333 0.6667 0.5339(4) 0.0253(6) Uani 1 3 d SD . .
H21 H 0.355(2) 0.6111(16) 0.4982(13) 0.030 Uiso 1 1 d D . .
H22 H 0.3333 0.6667 0.6444(7) 0.030 Uiso 1 3 d SD . .
N3 N 0.0000 0.0000 0.1414(4) 0.0151(4) Uani 1 3 d SD . .
H31 H 0.0256(18) 0.0788(7) 0.1757(12) 0.018 Uiso 1 1 d D . .
H32 H 0.0000 0.0000 0.0307(7) 0.018 Uiso 1 3 d SD . .

loop_
_atom_site_aniso_label
_atom_site_aniso_U_11
_atom_site_aniso_U_22
_atom_site_aniso_U_33
_atom_site_aniso_U_23
_atom_site_aniso_U_13
_atom_site_aniso_U_12
Mg1 0.0136(3) 0.0132(3) 0.0084(2) -0.00039(17) 0.00063(17) 0.0080(2)
O1 0.0204(5) 0.0171(5) 0.0136(6) -0.0047(5) 0.0003(4) 0.0115(5)
O2 0.0197(5) 0.0182(5) 0.0165(6) -0.0061(5) 0.0002(4) 0.0105(5)
O3 0.0227(6) 0.0156(5) 0.0126(6) 0.0042(4) 0.0056(5) 0.0107(4)
O4 0.0154(5) 0.0178(5) 0.0125(6) 0.0018(4) -0.0002(4) 0.0068(4)
O5 0.0183(5) 0.0172(5) 0.0140(6) 0.0002(5) -0.0053(4) 0.0099(4)
O6 0.0178(5) 0.0159(5) 0.0153(6) -0.0026(4) -0.0055(5) 0.0080(4)
C1 0.0162(8) 0.0262(9) 0.0337(12) -0.0195(7) 0.0011(7) 0.0074(7)
C2 0.0184(8) 0.0165(7) 0.0259(10) 0.0039(6) 0.0081(6) 0.0095(6)
C3 0.0206(7) 0.0159(7) 0.0127(8) -0.0029(6) -0.0046(6) 0.0112(6)
N1 0.0226(8) 0.0226(8) 0.0269(14) 0.000 0.000 0.0113(4)
N2 0.0255(8) 0.0255(8) 0.0250(14) 0.000 0.000 0.0128(4)
N3 0.0163(6) 0.0163(6) 0.0128(12) 0.000 0.000 0.0081(3)

_geom_special_details            
; 
 All esds (except the esd in the dihedral angle between two l.s. planes) 
 are estimated using the full covariance matrix.  The cell esds are taken 
 into account individually in the estimation of esds in distances, angles 
 and torsion angles; correlations between esds in cell parameters are only 
 used when they are defined by crystal symmetry.  An approximate (isotropic) 
 treatment of cell esds is used for estimating esds involving l.s. planes. 
;

loop_
_geom_bond_atom_site_label_1
_geom_bond_atom_site_label_2
_geom_bond_distance
_geom_bond_site_symmetry_2
_geom_bond_publ_flag
Mg1 O1 2.0698(12) . ?
Mg1 O4 2.0793(13) 4_665 ?
Mg1 O5 2.0813(13) . ?
Mg1 O3 2.0878(13) . ?
Mg1 O6 2.0879(13) 5 ?
Mg1 O2 2.0916(13) 6 ?
O1 C1 1.257(2) . ?
O2 C1 1.239(2) . ?
O2 Mg1 2.0916(13) 5_554 ?
O3 C2 1.255(2) . ?
O4 C2 1.240(2) . ?
O4 Mg1 2.0793(13) 4_664 ?
O5 C3 1.260(2) . ?
O6 C3 1.252(2) . ?
O6 Mg1 2.0879(13) 6_554 ?
C1 H1 0.9500 . ?
C2 H2 0.9500 . ?
C3 H3 0.9500 . ?
N1 H11 0.910(5) . ?
N1 H12 0.911(5) . ?
N2 H21 0.911(5) . ?
N2 H22 0.913(5) . ?
N3 H31 0.916(5) . ?
N3 H32 0.914(5) . ?

loop_
_geom_angle_atom_site_label_1
_geom_angle_atom_site_label_2
_geom_angle_atom_site_label_3
_geom_angle
_geom_angle_site_symmetry_1
_geom_angle_site_symmetry_3
_geom_angle_publ_flag
O1 Mg1 O4 84.30(4) . 4_665 ?
O1 Mg1 O5 90.49(5) . . ?
O4 Mg1 O5 171.56(5) 4_665 . ?
O1 Mg1 O3 91.19(5) . . ?
O4 Mg1 O3 95.46(5) 4_665 . ?
O5 Mg1 O3 91.27(5) . . ?
O1 Mg1 O6 95.29(5) . 5 ?
O4 Mg1 O6 90.34(5) 4_665 5 ?
O5 Mg1 O6 83.52(5) . 5 ?
O3 Mg1 O6 171.70(5) . 5 ?
O1 Mg1 O2 171.68(5) . 6 ?
O4 Mg1 O2 90.37(5) 4_665 6 ?
O5 Mg1 O2 95.51(5) . 6 ?
O3 Mg1 O2 82.94(4) . 6 ?
O6 Mg1 O2 91.12(5) 5 6 ?
C1 O1 Mg1 125.66(11) . . ?
C1 O2 Mg1 122.52(11) . 5_554 ?
C2 O3 Mg1 125.43(11) . . ?
C2 O4 Mg1 123.18(11) . 4_664 ?
C3 O5 Mg1 121.46(11) . . ?
C3 O6 Mg1 126.78(10) . 6_554 ?
O2 C1 O1 126.47(17) . . ?
O2 C1 H1 116.8 . . ?
O1 C1 H1 116.8 . . ?
O4 C2 O3 126.34(16) . . ?
O4 C2 H2 116.8 . . ?
O3 C2 H2 116.8 . . ?
O6 C3 O5 124.97(15) . . ?
O6 C3 H3 117.5 . . ?
O5 C3 H3 117.5 . . ?
H11 N1 H12 108.9(7) . . ?
H21 N2 H22 108.9(7) . . ?
H31 N3 H32 108.0(7) . . ?

loop_
_geom_hbond_atom_site_label_D
_geom_hbond_atom_site_label_H
_geom_hbond_atom_site_label_A
_geom_hbond_distance_DH
_geom_hbond_distance_HA
_geom_hbond_distance_DA
_geom_hbond_angle_DHA
_geom_hbond_site_symmetry_A
N1 H11 O1 0.910(5) 1.924(5) 2.8319(15) 175.4(13) .
N1 H11 O2 0.910(5) 3.000(12) 3.713(3) 136.5(13) .
N1 H11 O4 0.910(5) 2.731(16) 3.086(2) 104.4(11) 4_665
N2 H21 O3 0.911(5) 1.962(6) 2.8717(14) 175.6(11) .
N2 H21 O4 0.911(5) 2.975(12) 3.683(3) 135.6(13) .
N2 H22 O2 0.913(5) 2.7977(19) 3.153(2) 104.52(12) 4_665
N3 H31 O6 0.916(5) 1.964(5) 2.8776(14) 175.6(15) .
N3 H31 O5 0.916(5) 2.723(15) 3.091(2) 105.2(10) 6_554
N3 H32 O5 0.914(5) 2.7393(18) 3.091(2) 104.09(12) 4_554
C1 H1 O5 0.95 2.40 3.013(2) 121.8 .
C1 H1 O6 0.95 2.52 3.021(2) 112.7 3
C2 H2 O1 0.95 2.44 3.046(2) 121.8 .
C2 H2 O2 0.95 2.51 2.990(2) 111.6 3_665
C3 H3 O3 0.95 2.61 3.010(2) 105.6 .
C3 H3 O4 0.95 2.45 3.047(2) 120.9 3_565

_diffrn_measured_fraction_theta_max 0.997
_diffrn_reflns_theta_full        29.56
_diffrn_measured_fraction_theta_full 0.997
_refine_diff_density_max         0.696
_refine_diff_density_min         -0.717
_refine_diff_density_rms         0.055