####################################################################### 
# 
# This file contains crystal structure data downloaded from the 
# Cambridge Structural Database (CSD) hosted by the Cambridge 
# Crystallographic Data Centre (CCDC).
# 
# Full information about CCDC data access policies and citation 
# guidelines are available at http://www.ccdc.cam.ac.uk/access/V1 
# 
# Audit and citation data items may have been added by the CCDC. 
# Please retain this information to preserve the provenance of 
# this file and to allow appropriate attribution of the data. 
# 
#######################################################################

data_1-254K
_audit_block_doi                 10.5517/ccdc.csd.cc11545j
_database_code_depnum_ccdc_archive 'CCDC 958246'
loop_
_citation_id
_citation_doi
_citation_year
1 10.1002/chem.201303425 2014
_audit_update_record             
;
2013-08-30 deposited with the CCDC.	2022-07-19 downloaded from the CCDC.
;

_audit_creation_method           SHELXL-97
_chemical_name_systematic        
; 
 ? 
;
_chemical_name_common            ?
_chemical_melting_point          ?
_chemical_formula_moiety         ?
_chemical_formula_sum            'C3 H7 Mg N O6'
_chemical_formula_weight         177.41

loop_
_atom_type_symbol
_atom_type_description
_atom_type_scat_dispersion_real
_atom_type_scat_dispersion_imag
_atom_type_scat_source
C C 0.0033 0.0016 'International Tables Vol C Tables 4.2.6.8 and 6.1.1.4'
H H 0.0000 0.0000 'International Tables Vol C Tables 4.2.6.8 and 6.1.1.4'
N N 0.0061 0.0033 'International Tables Vol C Tables 4.2.6.8 and 6.1.1.4'
O O 0.0106 0.0060 'International Tables Vol C Tables 4.2.6.8 and 6.1.1.4'
Mg Mg 0.0486 0.0363 'International Tables Vol C Tables 4.2.6.8 and 6.1.1.4'

_symmetry_cell_setting           Hexagonal
_symmetry_space_group_name_H-M   'P 6(3)'

loop_
_symmetry_equiv_pos_as_xyz
'x, y, z'
'-y, x-y, z'
'-x+y, -x, z'
'-x, -y, z+1/2'
'y, -x+y, z+1/2'
'x-y, x, z+1/2'

_cell_length_a                   12.5720(3)
_cell_length_b                   12.5720(3)
_cell_length_c                   8.2184(2)
_cell_angle_alpha                90.00
_cell_angle_beta                 90.00
_cell_angle_gamma                120.00
_cell_volume                     1124.93(5)
_cell_formula_units_Z            6
_cell_measurement_temperature    254
_cell_measurement_reflns_used    8221
_cell_measurement_theta_min      3.395
_cell_measurement_theta_max      30.999

_exptl_crystal_description       'hexagonal block'
_exptl_crystal_colour            colorless
_exptl_crystal_size_max          0.69
_exptl_crystal_size_mid          0.65
_exptl_crystal_size_min          0.41
_exptl_crystal_density_meas      ?
_exptl_crystal_density_diffrn    1.571
_exptl_crystal_density_method    'not measured'
_exptl_crystal_F_000             552
_exptl_absorpt_coefficient_mu    0.223
_exptl_absorpt_correction_type   multi-scan
_exptl_absorpt_correction_T_min  0.645
_exptl_absorpt_correction_T_max  0.918
_exptl_absorpt_process_details   
;
multi-scan from symmetry-related measurements 
 Sortav (Blessing 1995, 1997)
;

_exptl_special_details           
; 
 ? 
;

_diffrn_ambient_temperature      254
_diffrn_radiation_wavelength     0.71073
_diffrn_radiation_type           MoK\a
_diffrn_radiation_source         'fine-focus sealed tube'
_diffrn_radiation_monochromator  graphite
_diffrn_measurement_device_type  'NONIUS KappaCCD'
_diffrn_measurement_method       CCD
_diffrn_detector_area_resol_mean 9
_diffrn_standards_number         ?
_diffrn_standards_interval_count ?
_diffrn_standards_interval_time  ?
_diffrn_standards_decay_%        0
_diffrn_reflns_number            19024
_diffrn_reflns_av_R_equivalents  0.0512
_diffrn_reflns_av_sigmaI/netI    0.0223
_diffrn_reflns_limit_h_min       -17
_diffrn_reflns_limit_h_max       17
_diffrn_reflns_limit_k_min       -17
_diffrn_reflns_limit_k_max       16
_diffrn_reflns_limit_l_min       -11
_diffrn_reflns_limit_l_max       11
_diffrn_reflns_theta_min         3.74
_diffrn_reflns_theta_max         29.55
_reflns_number_total             2109
_reflns_number_gt                990
_reflns_threshold_expression     >2sigma(I)

_computing_data_collection       'KappaCCD (Nonius B. V., 1998)'
_computing_cell_refinement       'HKL Scalepack (Otwinowski & Minor, 1997)'
_computing_data_reduction        
'HKL Denzo (Otwinowski & Minor, 1997) & maXus (Mackay et al., 1998)'
_computing_structure_solution    'SHELXS-97 (Sheldrick, 1997)'
_computing_structure_refinement  'SHELXL-97 (Sheldrick, 1997)'
_computing_molecular_graphics    'Bruker SHELXTL V5.1 (Sheldrick, 1998)'
_computing_publication_material  'SHELXL-97 (Sheldrick, 1997)'

_refine_special_details          
; 
 Refinement of F^2^ against ALL reflections.  The weighted R-factor wR and 
 goodness of fit S are based on F^2^, conventional R-factors R are based 
 on F, with F set to zero for negative F^2^. The threshold expression of 
 F^2^ > 2sigma(F^2^) is used only for calculating R-factors(gt) etc. and is 
 not relevant to the choice of reflections for refinement.  R-factors based 
 on F^2^ are statistically about twice as large as those based on F, and R- 
 factors based on ALL data will be even larger. 
;

_refine_ls_structure_factor_coef Fsqd
_refine_ls_matrix_type           full
_refine_ls_weighting_scheme      calc
_refine_ls_weighting_details     
'calc w=1/[\s^2^(Fo^2^)+(0.0593P)^2^+0.0987P] where P=(Fo^2^+2Fc^2^)/3'
_atom_sites_solution_primary     direct
_atom_sites_solution_secondary   difmap
_atom_sites_solution_hydrogens   difmap
_refine_ls_hydrogen_treatment    constr.
_refine_ls_extinction_method     SHELXL
_refine_ls_extinction_coef       0.056(5)
_refine_ls_extinction_expression Fc^*^=kFc[1+0.001xFc^2^\l^3^/sin(2\q)]^-1/4^
_refine_ls_abs_structure_details 'Flack H D (1983), Acta Cryst. A39, 876-881'
_refine_ls_abs_structure_Flack   0.00
_refine_ls_number_reflns         2109
_refine_ls_number_parameters     128
_refine_ls_number_restraints     19
_refine_ls_R_factor_all          0.0667
_refine_ls_R_factor_gt           0.0289
_refine_ls_wR_factor_ref         0.1237
_refine_ls_wR_factor_gt          0.1037
_refine_ls_goodness_of_fit_ref   1.031
_refine_ls_restrained_S_all      1.031
_refine_ls_shift/su_max          0.000
_refine_ls_shift/su_mean         0.000

loop_
_atom_site_label
_atom_site_type_symbol
_atom_site_fract_x
_atom_site_fract_y
_atom_site_fract_z
_atom_site_U_iso_or_equiv
_atom_site_adp_type
_atom_site_occupancy
_atom_site_symmetry_multiplicity
_atom_site_calc_flag
_atom_site_refinement_flags
_atom_site_disorder_assembly
_atom_site_disorder_group
Mg1 Mg 0.33402(5) 0.33274(5) 0.58666(11) 0.01725(19) Uani 1 1 d . . .
O1 O 0.42331(12) 0.26519(12) 0.44191(15) 0.0262(3) Uani 1 1 d . . .
O2 O 0.42395(11) 0.15618(11) 0.22978(14) 0.0268(3) Uani 1 1 d . . .
O3 O 0.40022(12) 0.48946(11) 0.44121(15) 0.0273(3) Uani 1 1 d . . .
O4 O 0.50832(11) 0.59961(12) 0.22919(14) 0.0274(4) Uani 1 1 d . . .
O5 O 0.17599(11) 0.24136(12) 0.44338(13) 0.0255(3) Uani 1 1 d . . .
O6 O 0.06814(11) 0.24438(11) 0.23118(13) 0.0248(3) Uani 1 1 d . . .
C1 C 0.37318(18) 0.18678(19) 0.3347(3) 0.0393(7) Uani 1 1 d . . .
H1 H 0.2878 0.1460 0.3321 0.047 Uiso 1 1 calc R . .
C2 C 0.47762(19) 0.51740(19) 0.3321(3) 0.0398(7) Uani 1 1 d . . .
H2 H 0.5171 0.4716 0.3268 0.048 Uiso 1 1 calc R . .
C3 C 0.14461(18) 0.29339(18) 0.3419(3) 0.0300(5) Uani 1 1 d . . .
H3 H 0.1825 0.3784 0.3496 0.036 Uiso 1 1 calc R . .
N11 N 0.6667 0.3333 0.6219(8) 0.0377(12) Uani 0.50 3 d SPD . .
H11 H 0.595(2) 0.324(5) 0.5888(15) 0.045 Uiso 0.50 1 d PD . .
H12 H 0.6667 0.3333 0.7309(10) 0.045 Uiso 0.50 3 d SPD . .
N12 N 0.6667 0.3333 0.5350(10) 0.0377(12) Uani 0.50 3 d SPD . .
H13 H 0.5923(14) 0.313(5) 0.4986(16) 0.045 Uiso 0.50 1 d PD . .
H14 H 0.6667 0.3333 0.6433(12) 0.045 Uiso 0.50 3 d SPD . .
N21 N 0.3333 0.6667 0.6231(8) 0.0368(11) Uani 0.50 3 d SPD . .
H21 H 0.351(5) 0.609(3) 0.5899(15) 0.044 Uiso 0.50 1 d PD . .
H22 H 0.3333 0.6667 0.7320(10) 0.044 Uiso 0.50 3 d SPD . .
N22 N 0.3333 0.6667 0.5347(10) 0.0368(11) Uani 0.50 3 d SPD . .
H23 H 0.352(5) 0.611(3) 0.4989(16) 0.044 Uiso 0.50 1 d PD . .
H24 H 0.3333 0.6667 0.6431(12) 0.044 Uiso 0.50 3 d SPD . .
N31 N 0.0000 0.0000 0.1379(10) 0.0267(15) Uani 0.50 3 d SPD . .
H31 H 0.031(4) 0.0759(9) 0.1753(17) 0.032 Uiso 0.50 1 d PD . .
H32 H 0.0000 0.0000 0.0299(12) 0.032 Uiso 0.50 3 d SPD . .
N32 N 0.0000 0.0000 0.0812(11) 0.0267(15) Uani 0.50 3 d SPD . .
H33 H -0.010(5) 0.063(3) 0.1122(16) 0.032 Uiso 0.50 1 d PD . .
H34 H 0.0000 0.0000 -0.0282(12) 0.032 Uiso 0.50 3 d SPD . .

loop_
_atom_site_aniso_label
_atom_site_aniso_U_11
_atom_site_aniso_U_22
_atom_site_aniso_U_33
_atom_site_aniso_U_23
_atom_site_aniso_U_13
_atom_site_aniso_U_12
Mg1 0.0200(3) 0.0199(3) 0.0121(3) 0.0016(2) -0.0008(2) 0.0102(3)
O1 0.0301(7) 0.0291(8) 0.0227(7) -0.0053(6) -0.0010(5) 0.0172(6)
O2 0.0293(7) 0.0263(7) 0.0228(8) -0.0069(6) 0.0012(5) 0.0123(6)
O3 0.0301(8) 0.0258(7) 0.0251(7) 0.0085(5) 0.0089(6) 0.0133(6)
O4 0.0254(7) 0.0294(7) 0.0251(8) 0.0086(6) 0.0093(6) 0.0119(6)
O5 0.0265(7) 0.0307(8) 0.0204(7) 0.0049(5) -0.0058(5) 0.0151(6)
O6 0.0298(7) 0.0284(7) 0.0200(7) -0.0047(5) -0.0128(6) 0.0173(6)
C1 0.0262(11) 0.0372(13) 0.0527(18) -0.0245(10) -0.0024(10) 0.0144(10)
C2 0.0387(13) 0.0324(12) 0.0571(19) 0.0252(11) 0.0263(11) 0.0243(11)
C3 0.0340(11) 0.0219(10) 0.0318(10) -0.0015(9) -0.0169(9) 0.0124(9)
N11 0.0381(13) 0.0381(13) 0.037(3) 0.000 0.000 0.0190(7)
N12 0.0381(13) 0.0381(13) 0.037(3) 0.000 0.000 0.0190(7)
N21 0.0381(13) 0.0381(13) 0.034(3) 0.000 0.000 0.0191(7)
N22 0.0381(13) 0.0381(13) 0.034(3) 0.000 0.000 0.0191(7)
N31 0.0343(10) 0.0343(10) 0.012(5) 0.000 0.000 0.0171(5)
N32 0.0343(10) 0.0343(10) 0.012(5) 0.000 0.000 0.0171(5)

_geom_special_details            
; 
 All esds (except the esd in the dihedral angle between two l.s. planes) 
 are estimated using the full covariance matrix.  The cell esds are taken 
 into account individually in the estimation of esds in distances, angles 
 and torsion angles; correlations between esds in cell parameters are only 
 used when they are defined by crystal symmetry.  An approximate (isotropic) 
 treatment of cell esds is used for estimating esds involving l.s. planes. 
;

loop_
_geom_bond_atom_site_label_1
_geom_bond_atom_site_label_2
_geom_bond_distance
_geom_bond_site_symmetry_2
_geom_bond_publ_flag
Mg1 O6 2.0819(13) 5 ?
Mg1 O4 2.0829(13) 4_665 ?
Mg1 O2 2.0850(13) 6 ?
Mg1 O1 2.0857(14) . ?
Mg1 O3 2.0890(14) . ?
Mg1 O5 2.0908(14) . ?
O1 C1 1.235(2) . ?
O2 C1 1.243(2) . ?
O2 Mg1 2.0850(13) 5_554 ?
O3 C2 1.238(2) . ?
O4 C2 1.238(2) . ?
O4 Mg1 2.0829(13) 4_664 ?
O5 C3 1.240(2) . ?
O6 C3 1.241(2) . ?
O6 Mg1 2.0819(13) 6_554 ?
C1 H1 0.9300 . ?
C2 H2 0.9300 . ?
C3 H3 0.9300 . ?
N11 N12 0.714(7) . ?
N11 H11 0.894(5) . ?
N11 H12 0.896(5) . ?
N11 H13 1.313(8) . ?
N11 H14 0.176(9) . ?
N12 H11 0.960(11) . ?
N12 H13 0.888(5) . ?
N12 H14 0.890(5) . ?
N21 N22 0.726(7) . ?
N21 H21 0.895(5) . ?
N21 H22 0.895(5) . ?
N21 H23 1.321(8) . ?
N21 H24 0.164(9) . ?
N22 H21 0.966(11) . ?
N22 H23 0.889(5) . ?
N22 H24 0.891(5) . ?
N31 H31 0.886(5) . ?
N31 H32 0.887(5) . ?
N31 H33 0.887(9) . ?
N31 H34 1.365(13) . ?
N32 H31 1.136(9) . ?
N32 H32 0.421(13) . ?
N32 H33 0.898(5) . ?
N32 H34 0.899(5) . ?

loop_
_geom_angle_atom_site_label_1
_geom_angle_atom_site_label_2
_geom_angle_atom_site_label_3
_geom_angle
_geom_angle_site_symmetry_1
_geom_angle_site_symmetry_3
_geom_angle_publ_flag
O6 Mg1 O4 91.15(5) 5 4_665 ?
O6 Mg1 O2 91.24(6) 5 6 ?
O4 Mg1 O2 91.06(6) 4_665 6 ?
O6 Mg1 O1 95.04(5) 5 . ?
O4 Mg1 O1 83.74(5) 4_665 . ?
O2 Mg1 O1 171.92(6) 6 . ?
O6 Mg1 O3 171.86(6) 5 . ?
O4 Mg1 O3 95.03(6) 4_665 . ?
O2 Mg1 O3 83.36(5) 6 . ?
O1 Mg1 O3 90.91(6) . . ?
O6 Mg1 O5 83.42(5) 5 . ?
O4 Mg1 O5 171.87(5) 4_665 . ?
O2 Mg1 O5 95.09(5) 6 . ?
O1 Mg1 O5 90.69(6) . . ?
O3 Mg1 O5 90.97(6) . . ?
C1 O1 Mg1 124.64(13) . . ?
C1 O2 Mg1 124.16(12) . 5_554 ?
C2 O3 Mg1 124.62(13) . . ?
C2 O4 Mg1 124.10(13) . 4_664 ?
C3 O5 Mg1 123.69(13) . . ?
C3 O6 Mg1 124.88(12) . 6_554 ?
O1 C1 O2 127.31(19) . . ?
O1 C1 H1 116.3 . . ?
O2 C1 H1 116.3 . . ?
O3 C2 O4 127.18(19) . . ?
O3 C2 H2 116.4 . . ?
O4 C2 H2 116.4 . . ?
O5 C3 O6 127.11(18) . . ?
O5 C3 H3 116.4 . . ?
O6 C3 H3 116.4 . . ?
N12 N11 H11 72.3(8) . . ?
N12 N11 H12 180.000(10) . . ?
H11 N11 H12 107.7(8) . . ?
N12 N11 H13 39.5(6) . . ?
H11 N11 H13 33.5(14) . . ?
H12 N11 H13 140.5(6) . . ?
N12 N11 H14 180.00(2) . . ?
H11 N11 H14 107.7(8) . . ?
H12 N11 H14 0.000(18) . . ?
H13 N11 H14 140.5(6) . . ?
N11 N12 H11 62.6(6) . . ?
N11 N12 H13 109.7(8) . . ?
H11 N12 H13 47.9(14) . . ?
N11 N12 H14 0.000(3) . . ?
H11 N12 H14 62.6(6) . . ?
H13 N12 H14 109.7(8) . . ?
N22 N21 H21 72.3(8) . . ?
N22 N21 H22 180.000(9) . . ?
H21 N21 H22 107.7(8) . . ?
N22 N21 H23 39.4(6) . . ?
H21 N21 H23 32.9(10) . . ?
H22 N21 H23 140.6(6) . . ?
N22 N21 H24 180.00(3) . . ?
H21 N21 H24 107.7(8) . . ?
H22 N21 H24 0.00(3) . . ?
H23 N21 H24 140.6(6) . . ?
N21 N22 H21 62.0(6) . . ?
N21 N22 H23 109.4(8) . . ?
H21 N22 H23 47.4(10) . . ?
N21 N22 H24 0.000(4) . . ?
H21 N22 H24 62.0(6) . . ?
H23 N22 H24 109.4(8) . . ?
H31 N31 H32 110.3(8) . . ?
H31 N31 H33 46(3) . . ?
H32 N31 H33 76.2(10) . . ?
H31 N31 H34 110.3(8) . . ?
H32 N31 H34 0.0 . . ?
H33 N31 H34 76.2(10) . . ?
H31 N32 H32 132.9(8) . . ?
H31 N32 H33 37(3) . . ?
H32 N32 H33 106.5(8) . . ?
H31 N32 H34 132.9(8) . . ?
H32 N32 H34 0.0 . . ?
H33 N32 H34 106.5(8) . . ?

_diffrn_measured_fraction_theta_max 0.997
_diffrn_reflns_theta_full        29.55
_diffrn_measured_fraction_theta_full 0.997
_refine_diff_density_max         0.199
_refine_diff_density_min         -0.317
_refine_diff_density_rms         0.045