####################################################################### 
# 
# This file contains crystal structure data downloaded from the 
# Cambridge Structural Database (CSD) hosted by the Cambridge 
# Crystallographic Data Centre (CCDC).
# 
# Full information about CCDC data access policies and citation 
# guidelines are available at http://www.ccdc.cam.ac.uk/access/V1 
# 
# Audit and citation data items may have been added by the CCDC. 
# Please retain this information to preserve the provenance of 
# this file and to allow appropriate attribution of the data. 
# 
#######################################################################

data_1-250K
_audit_block_doi                 10.5517/ccdc.csd.cc11544h
_database_code_depnum_ccdc_archive 'CCDC 958245'
loop_
_citation_id
_citation_doi
_citation_year
1 10.1002/chem.201303425 2014
_audit_update_record             
;
2013-08-30 deposited with the CCDC.	2022-07-19 downloaded from the CCDC.
;

_audit_creation_method           SHELXL-97
_chemical_name_systematic        
; 
 ? 
;
_chemical_name_common            ?
_chemical_melting_point          ?
_chemical_formula_moiety         ?
_chemical_formula_sum            'C3 H7 Mg N O6'
_chemical_formula_weight         177.41

loop_
_atom_type_symbol
_atom_type_description
_atom_type_scat_dispersion_real
_atom_type_scat_dispersion_imag
_atom_type_scat_source
C C 0.0033 0.0016 'International Tables Vol C Tables 4.2.6.8 and 6.1.1.4'
H H 0.0000 0.0000 'International Tables Vol C Tables 4.2.6.8 and 6.1.1.4'
N N 0.0061 0.0033 'International Tables Vol C Tables 4.2.6.8 and 6.1.1.4'
O O 0.0106 0.0060 'International Tables Vol C Tables 4.2.6.8 and 6.1.1.4'
Mg Mg 0.0486 0.0363 'International Tables Vol C Tables 4.2.6.8 and 6.1.1.4'

_symmetry_cell_setting           Hexagonal
_symmetry_space_group_name_H-M   'P 6(3)'

loop_
_symmetry_equiv_pos_as_xyz
'x, y, z'
'-y, x-y, z'
'-x+y, -x, z'
'-x, -y, z+1/2'
'y, -x+y, z+1/2'
'x-y, x, z+1/2'

_cell_length_a                   12.5693(3)
_cell_length_b                   12.5693(3)
_cell_length_c                   8.2216(2)
_cell_angle_alpha                90.00
_cell_angle_beta                 90.00
_cell_angle_gamma                120.00
_cell_volume                     1124.89(5)
_cell_formula_units_Z            6
_cell_measurement_temperature    250
_cell_measurement_reflns_used    9585
_cell_measurement_theta_min      3.395
_cell_measurement_theta_max      30.999

_exptl_crystal_description       'hexagonal block'
_exptl_crystal_colour            colorless
_exptl_crystal_size_max          0.69
_exptl_crystal_size_mid          0.65
_exptl_crystal_size_min          0.41
_exptl_crystal_density_meas      ?
_exptl_crystal_density_diffrn    1.571
_exptl_crystal_density_method    'not measured'
_exptl_crystal_F_000             552
_exptl_absorpt_coefficient_mu    0.223
_exptl_absorpt_correction_type   multi-scan
_exptl_absorpt_correction_T_min  0.650
_exptl_absorpt_correction_T_max  0.917
_exptl_absorpt_process_details   
;
multi-scan from symmetry-related measurements 
 Sortav (Blessing 1995, 1997)
;

_exptl_special_details           
; 
 ? 
;

_diffrn_ambient_temperature      250
_diffrn_radiation_wavelength     0.71073
_diffrn_radiation_type           MoK\a
_diffrn_radiation_source         'fine-focus sealed tube'
_diffrn_radiation_monochromator  graphite
_diffrn_measurement_device_type  'NONIUS KappaCCD'
_diffrn_measurement_method       CCD
_diffrn_detector_area_resol_mean 9
_diffrn_standards_number         ?
_diffrn_standards_interval_count ?
_diffrn_standards_interval_time  ?
_diffrn_standards_decay_%        0
_diffrn_reflns_number            18795
_diffrn_reflns_av_R_equivalents  0.0514
_diffrn_reflns_av_sigmaI/netI    0.0224
_diffrn_reflns_limit_h_min       -17
_diffrn_reflns_limit_h_max       17
_diffrn_reflns_limit_k_min       -17
_diffrn_reflns_limit_k_max       16
_diffrn_reflns_limit_l_min       -11
_diffrn_reflns_limit_l_max       11
_diffrn_reflns_theta_min         3.74
_diffrn_reflns_theta_max         29.54
_reflns_number_total             2109
_reflns_number_gt                1185
_reflns_threshold_expression     >2sigma(I)

_computing_data_collection       'KappaCCD (Nonius B. V., 1998)'
_computing_cell_refinement       'HKL Scalepack (Otwinowski & Minor, 1997)'
_computing_data_reduction        
'HKL Denzo (Otwinowski & Minor, 1997) & maXus (Mackay et al., 1998)'
_computing_structure_solution    'SHELXS-97 (Sheldrick, 1997)'
_computing_structure_refinement  'SHELXL-97 (Sheldrick, 1997)'
_computing_molecular_graphics    'Bruker SHELXTL V5.1 (Sheldrick, 1998)'
_computing_publication_material  'SHELXL-97 (Sheldrick, 1997)'

_refine_special_details          
; 
 Refinement of F^2^ against ALL reflections.  The weighted R-factor wR and 
 goodness of fit S are based on F^2^, conventional R-factors R are based 
 on F, with F set to zero for negative F^2^. The threshold expression of 
 F^2^ > 2sigma(F^2^) is used only for calculating R-factors(gt) etc. and is 
 not relevant to the choice of reflections for refinement.  R-factors based 
 on F^2^ are statistically about twice as large as those based on F, and R- 
 factors based on ALL data will be even larger. 
;

_refine_ls_structure_factor_coef Fsqd
_refine_ls_matrix_type           full
_refine_ls_weighting_scheme      calc
_refine_ls_weighting_details     
'calc w=1/[\s^2^(Fo^2^)+(0.0654P)^2^+0.0816P] where P=(Fo^2^+2Fc^2^)/3'
_atom_sites_solution_primary     direct
_atom_sites_solution_secondary   difmap
_atom_sites_solution_hydrogens   difmap
_refine_ls_hydrogen_treatment    constr.
_refine_ls_extinction_method     SHELXL
_refine_ls_extinction_coef       0.046(5)
_refine_ls_extinction_expression Fc^*^=kFc[1+0.001xFc^2^\l^3^/sin(2\q)]^-1/4^
_refine_ls_abs_structure_details 'Flack H D (1983), Acta Cryst. A39, 876-881'
_refine_ls_abs_structure_Flack   0.00
_refine_ls_number_reflns         2109
_refine_ls_number_parameters     123
_refine_ls_number_restraints     16
_refine_ls_R_factor_all          0.0619
_refine_ls_R_factor_gt           0.0316
_refine_ls_wR_factor_ref         0.1307
_refine_ls_wR_factor_gt          0.1147
_refine_ls_goodness_of_fit_ref   1.066
_refine_ls_restrained_S_all      1.067
_refine_ls_shift/su_max          0.000
_refine_ls_shift/su_mean         0.000

loop_
_atom_site_label
_atom_site_type_symbol
_atom_site_fract_x
_atom_site_fract_y
_atom_site_fract_z
_atom_site_U_iso_or_equiv
_atom_site_adp_type
_atom_site_occupancy
_atom_site_symmetry_multiplicity
_atom_site_calc_flag
_atom_site_refinement_flags
_atom_site_disorder_assembly
_atom_site_disorder_group
Mg1 Mg 0.33431(5) 0.33230(5) 0.58747(11) 0.0164(2) Uani 1 1 d . . .
O1 O 0.42331(11) 0.26452(11) 0.44207(14) 0.0245(3) Uani 1 1 d . . .
O2 O 0.42420(11) 0.15567(11) 0.22998(14) 0.0263(3) Uani 1 1 d . . .
O3 O 0.40028(11) 0.48903(11) 0.44095(14) 0.0260(3) Uani 1 1 d . . .
O4 O 0.50766(11) 0.59967(11) 0.22888(14) 0.0252(3) Uani 1 1 d . . .
O5 O 0.17606(11) 0.24059(11) 0.44463(13) 0.0251(3) Uani 1 1 d . . .
O6 O 0.06923(11) 0.24535(11) 0.23241(13) 0.0245(3) Uani 1 1 d . . .
C1 C 0.37303(17) 0.18661(19) 0.3339(3) 0.0366(7) Uani 1 1 d . . .
H1 H 0.2868 0.1465 0.3298 0.044 Uiso 1 1 calc R . .
C2 C 0.47645(19) 0.51604(18) 0.3299(3) 0.0347(7) Uani 1 1 d . . .
H2 H 0.5144 0.4681 0.3215 0.042 Uiso 1 1 calc R . .
C3 C 0.14338(18) 0.29332(17) 0.3466(3) 0.0302(6) Uani 1 1 d . . .
H3 H 0.1782 0.3786 0.3596 0.036 Uiso 1 1 calc R . .
N11 N 0.6667 0.3333 0.6123(8) 0.0342(12) Uani 0.50 3 d SPD . .
H11 H 0.595(2) 0.328(4) 0.5800(15) 0.041 Uiso 0.50 1 d PD . .
H12 H 0.6667 0.3333 0.7228(10) 0.041 Uiso 0.50 3 d SPD . .
N12 N 0.6667 0.3333 0.5339(10) 0.0342(12) Uani 0.50 3 d SPD . .
H13 H 0.5904(10) 0.306(4) 0.4960(16) 0.041 Uiso 0.50 1 d PD . .
H14 H 0.6667 0.3333 0.6432(11) 0.041 Uiso 0.50 3 d SPD . .
N21 N 0.3333 0.6667 0.6146(8) 0.0344(11) Uani 0.50 3 d SPD . .
H21 H 0.335(4) 0.599(2) 0.5820(15) 0.041 Uiso 0.50 1 d PD . .
H22 H 0.3333 0.6667 0.7249(10) 0.041 Uiso 0.50 3 d SPD . .
N22 N 0.3333 0.6667 0.5325(10) 0.0344(11) Uani 0.50 3 d SPD . .
H23 H 0.360(4) 0.617(3) 0.4957(16) 0.041 Uiso 0.50 1 d PD . .
H24 H 0.3333 0.6667 0.6419(11) 0.041 Uiso 0.50 3 d SPD . .
N3 N 0.0000 0.0000 0.1240(6) 0.0374(7) Uani 1 3 d SD . .
H31 H 0.019(2) 0.0756(9) 0.1578(13) 0.045 Uiso 1 1 d D . .
H32 H 0.0000 0.0000 0.0139(8) 0.045 Uiso 1 3 d SD . .

loop_
_atom_site_aniso_label
_atom_site_aniso_U_11
_atom_site_aniso_U_22
_atom_site_aniso_U_33
_atom_site_aniso_U_23
_atom_site_aniso_U_13
_atom_site_aniso_U_12
Mg1 0.0190(3) 0.0188(3) 0.0118(3) 0.00070(19) -0.00005(19) 0.0098(3)
O1 0.0292(7) 0.0264(7) 0.0205(7) -0.0056(6) -0.0013(5) 0.0160(5)
O2 0.0285(7) 0.0250(6) 0.0233(7) -0.0086(5) 0.0019(5) 0.0117(5)
O3 0.0299(7) 0.0245(6) 0.0234(7) 0.0065(5) 0.0091(6) 0.0134(5)
O4 0.0240(6) 0.0278(7) 0.0213(7) 0.0086(6) 0.0079(5) 0.0112(5)
O5 0.0264(7) 0.0299(7) 0.0198(7) 0.0032(5) -0.0052(5) 0.0147(5)
O6 0.0301(7) 0.0268(7) 0.0197(7) -0.0031(5) -0.0115(6) 0.0165(5)
C1 0.0229(10) 0.0346(11) 0.0498(19) -0.0234(9) -0.0017(8) 0.0125(9)
C2 0.0367(12) 0.0289(11) 0.0448(19) 0.0189(9) 0.0218(9) 0.0212(10)
C3 0.0337(11) 0.0234(10) 0.0322(13) -0.0051(8) -0.0190(8) 0.0133(9)
N11 0.0357(11) 0.0357(11) 0.031(3) 0.000 0.000 0.0178(6)
N12 0.0357(11) 0.0357(11) 0.031(3) 0.000 0.000 0.0178(6)
N21 0.0355(11) 0.0355(11) 0.032(3) 0.000 0.000 0.0178(6)
N22 0.0355(11) 0.0355(11) 0.032(3) 0.000 0.000 0.0178(6)
N3 0.0339(9) 0.0339(9) 0.0445(17) 0.000 0.000 0.0169(4)

_geom_special_details            
; 
 All esds (except the esd in the dihedral angle between two l.s. planes) 
 are estimated using the full covariance matrix.  The cell esds are taken 
 into account individually in the estimation of esds in distances, angles 
 and torsion angles; correlations between esds in cell parameters are only 
 used when they are defined by crystal symmetry.  An approximate (isotropic) 
 treatment of cell esds is used for estimating esds involving l.s. planes. 
;

loop_
_geom_bond_atom_site_label_1
_geom_bond_atom_site_label_2
_geom_bond_distance
_geom_bond_site_symmetry_2
_geom_bond_publ_flag
Mg1 O6 2.0806(13) 5 ?
Mg1 O4 2.0809(13) 4_665 ?
Mg1 O2 2.0846(13) 6 ?
Mg1 O1 2.0879(13) . ?
Mg1 O5 2.0908(13) . ?
Mg1 O3 2.0943(13) . ?
O1 C1 1.237(2) . ?
O2 C1 1.243(2) . ?
O2 Mg1 2.0846(13) 5_554 ?
O3 C2 1.241(2) . ?
O4 C2 1.239(2) . ?
O4 Mg1 2.0809(13) 4_664 ?
O5 C3 1.237(2) . ?
O6 C3 1.245(2) . ?
O6 Mg1 2.0806(13) 6_554 ?
C1 H1 0.9400 . ?
C2 H2 0.9400 . ?
C3 H3 0.9400 . ?
N11 N12 0.644(8) . ?
N11 H11 0.906(5) . ?
N11 H12 0.908(5) . ?
N11 H13 1.273(8) . ?
N11 H14 0.254(10) . ?
N12 H11 0.945(11) . ?
N12 H13 0.896(5) . ?
N12 H14 0.898(5) . ?
N21 N22 0.675(8) . ?
N21 H21 0.908(5) . ?
N21 H22 0.907(5) . ?
N21 H23 1.293(8) . ?
N21 H24 0.225(9) . ?
N22 H21 0.958(11) . ?
N22 H23 0.898(5) . ?
N22 H24 0.900(5) . ?
N3 H31 0.901(5) . ?
N3 H32 0.906(5) . ?

loop_
_geom_angle_atom_site_label_1
_geom_angle_atom_site_label_2
_geom_angle_atom_site_label_3
_geom_angle
_geom_angle_site_symmetry_1
_geom_angle_site_symmetry_3
_geom_angle_publ_flag
O6 Mg1 O4 91.14(5) 5 4_665 ?
O6 Mg1 O2 91.48(5) 5 6 ?
O4 Mg1 O2 91.14(5) 4_665 6 ?
O6 Mg1 O1 95.04(5) 5 . ?
O4 Mg1 O1 83.77(5) 4_665 . ?
O2 Mg1 O1 171.79(6) 6 . ?
O6 Mg1 O5 83.52(5) 5 . ?
O4 Mg1 O5 171.85(5) 4_665 . ?
O2 Mg1 O5 95.14(5) 6 . ?
O1 Mg1 O5 90.55(5) . . ?
O6 Mg1 O3 171.96(5) 5 . ?
O4 Mg1 O3 95.00(6) 4_665 . ?
O2 Mg1 O3 83.24(4) 6 . ?
O1 Mg1 O3 90.78(6) . . ?
O5 Mg1 O3 90.89(6) . . ?
C1 O1 Mg1 124.66(12) . . ?
C1 O2 Mg1 123.80(12) . 5_554 ?
C2 O3 Mg1 124.68(12) . . ?
C2 O4 Mg1 123.72(12) . 4_664 ?
C3 O5 Mg1 123.36(12) . . ?
C3 O6 Mg1 125.32(12) . 6_554 ?
O1 C1 O2 127.04(18) . . ?
O1 C1 H1 116.5 . . ?
O2 C1 H1 116.5 . . ?
O4 C2 O3 126.77(18) . . ?
O4 C2 H2 116.6 . . ?
O3 C2 H2 116.6 . . ?
O5 C3 O6 126.89(18) . . ?
O5 C3 H3 116.6 . . ?
O6 C3 H3 116.6 . . ?
N12 N11 H11 72.9(8) . . ?
N12 N11 H12 180.000(10) . . ?
H11 N11 H12 107.1(8) . . ?
N12 N11 H13 41.3(6) . . ?
H11 N11 H13 34.5(18) . . ?
H12 N11 H13 138.7(6) . . ?
N12 N11 H14 180.000(15) . . ?
H11 N11 H14 107.1(8) . . ?
H12 N11 H14 0.000(11) . . ?
H13 N11 H14 138.7(6) . . ?
N11 N12 H11 66.4(7) . . ?
N11 N12 H13 110.3(8) . . ?
H11 N12 H13 47.0(19) . . ?
N11 N12 H14 0.000(3) . . ?
H11 N12 H14 66.4(7) . . ?
H13 N12 H14 110.3(8) . . ?
N22 N21 H21 72.8(8) . . ?
N22 N21 H22 180.000(12) . . ?
H21 N21 H22 107.2(8) . . ?
N22 N21 H23 40.9(6) . . ?
H21 N21 H23 35.4(18) . . ?
H22 N21 H23 139.1(6) . . ?
N22 N21 H24 180.00(2) . . ?
H21 N21 H24 107.2(8) . . ?
H22 N21 H24 0.000(16) . . ?
H23 N21 H24 139.1(6) . . ?
N21 N22 H21 64.8(6) . . ?
N21 N22 H23 109.7(8) . . ?
H21 N22 H23 48.4(18) . . ?
N21 N22 H24 0.000(4) . . ?
H21 N22 H24 64.8(6) . . ?
H23 N22 H24 109.7(8) . . ?
H31 N3 H32 107.9(7) . . ?

loop_
_geom_hbond_atom_site_label_D
_geom_hbond_atom_site_label_H
_geom_hbond_atom_site_label_A
_geom_hbond_distance_DH
_geom_hbond_distance_HA
_geom_hbond_distance_DA
_geom_hbond_angle_DHA
_geom_hbond_site_symmetry_A
N3 H31 O6 0.901(5) 1.994(5) 2.8944(19) 177(2) .
N3 H31 O5 0.901(5) 2.662(15) 3.086(3) 109.9(11) 6_554
N3 H32 O5 0.906(5) 2.7703(18) 3.086(3) 101.86(14) 4_554
C1 H1 O5 0.94 2.42 3.016(2) 120.9 .
C1 H1 O6 0.94 2.48 3.034(2) 117.6 3
C2 H2 O1 0.94 2.43 3.030(2) 121.5 .
C2 H2 O2 0.94 2.48 3.018(2) 116.4 3_665
C3 H3 O3 0.94 2.51 3.023(2) 114.6 .
C3 H3 O4 0.94 2.43 3.037(2) 122.0 3_565

_diffrn_measured_fraction_theta_max 0.997
_diffrn_reflns_theta_full        29.54
_diffrn_measured_fraction_theta_full 0.997
_refine_diff_density_max         0.322
_refine_diff_density_min         -0.439
_refine_diff_density_rms         0.049