####################################################################### 
# 
# This file contains crystal structure data downloaded from the 
# Cambridge Structural Database (CSD) hosted by the Cambridge 
# Crystallographic Data Centre (CCDC).
# 
# Full information about CCDC data access policies and citation 
# guidelines are available at http://www.ccdc.cam.ac.uk/access/V1 
# 
# Audit and citation data items may have been added by the CCDC. 
# Please retain this information to preserve the provenance of 
# this file and to allow appropriate attribution of the data. 
# 
#######################################################################

data_07jan11b-Zn
_audit_block_doi                 10.5517/ccrtl9f
_database_code_depnum_ccdc_archive 'CCDC 709785'
loop_
_citation_id
_citation_doi
_citation_year
1 10.1002/chem.200901605 2009
_audit_update_record             
;
2008-11-17 deposited with the CCDC.	2022-07-18 downloaded from the CCDC.
;

_audit_creation_method           SHELXL-97
_chemical_name_systematic        
;
?
;
_chemical_name_common            ?
_chemical_melting_point          ?
_chemical_formula_moiety         ?
_chemical_formula_sum            'C4 H9 N3 O6 Zn'
_chemical_formula_weight         260.51

loop_
_atom_type_symbol
_atom_type_description
_atom_type_scat_dispersion_real
_atom_type_scat_dispersion_imag
_atom_type_scat_source
C C 0.0033 0.0016 'International Tables Vol C Tables 4.2.6.8 and 6.1.1.4'
H H 0.0000 0.0000 'International Tables Vol C Tables 4.2.6.8 and 6.1.1.4'
N N 0.0061 0.0033 'International Tables Vol C Tables 4.2.6.8 and 6.1.1.4'
O O 0.0106 0.0060 'International Tables Vol C Tables 4.2.6.8 and 6.1.1.4'
Zn Zn 0.2839 1.4301 'International Tables Vol C Tables 4.2.6.8 and 6.1.1.4'

_symmetry_cell_setting           Orthorhombic
_symmetry_space_group_name_H-M   'P nna'

loop_
_symmetry_equiv_pos_as_xyz
'x, y, z'
'-x+1/2, -y, z'
'-x+1/2, y+1/2, -z+1/2'
'x, -y+1/2, -z+1/2'
'-x, -y, -z'
'x-1/2, y, -z'
'x-1/2, -y-1/2, z-1/2'
'-x, y-1/2, z-1/2'

_cell_length_a                   8.3493(3)
_cell_length_b                   11.7276(5)
_cell_length_c                   8.9089(4)
_cell_angle_alpha                90.00
_cell_angle_beta                 90.00
_cell_angle_gamma                90.00
_cell_volume                     872.34(6)
_cell_formula_units_Z            4
_cell_measurement_temperature    293(2)
_cell_measurement_reflns_used    4184
_cell_measurement_theta_min      3.395
_cell_measurement_theta_max      27.485

_exptl_crystal_description       block
_exptl_crystal_colour            colorless
_exptl_crystal_size_max          0.37
_exptl_crystal_size_mid          0.32
_exptl_crystal_size_min          0.21
_exptl_crystal_density_meas      ?
_exptl_crystal_density_diffrn    1.984
_exptl_crystal_density_method    'not measured'
_exptl_crystal_F_000             528
_exptl_absorpt_coefficient_mu    2.827
_exptl_absorpt_correction_type   multi-scan
_exptl_absorpt_correction_T_min  0.424
_exptl_absorpt_correction_T_max  0.556
_exptl_absorpt_process_details   
;
multi-scan from symmetry-related measurements
Sortav (Blessing 1995, 1997)
;

_exptl_special_details           
;
?
;

_diffrn_ambient_temperature      293(2)
_diffrn_radiation_wavelength     0.71073
_diffrn_radiation_type           MoK\a
_diffrn_radiation_source         'fine-focus sealed tube'
_diffrn_radiation_monochromator  graphite
_diffrn_measurement_device_type  'NONIUS KappaCCD'
_diffrn_measurement_method       CCD
_diffrn_detector_area_resol_mean 9
_diffrn_standards_number         ?
_diffrn_standards_interval_count ?
_diffrn_standards_interval_time  ?
_diffrn_standards_decay_%        ?
_diffrn_reflns_number            14793
_diffrn_reflns_av_R_equivalents  0.0868
_diffrn_reflns_av_sigmaI/netI    0.0431
_diffrn_reflns_limit_h_min       -10
_diffrn_reflns_limit_h_max       10
_diffrn_reflns_limit_k_min       -15
_diffrn_reflns_limit_k_max       15
_diffrn_reflns_limit_l_min       -11
_diffrn_reflns_limit_l_max       11
_diffrn_reflns_theta_min         3.47
_diffrn_reflns_theta_max         27.46
_reflns_number_total             1003
_reflns_number_gt                606
_reflns_threshold_expression     >2sigma(I)

_computing_data_collection       'KappaCCD (Nonius B. V., 1998)'
_computing_cell_refinement       'HKL Scalepack (Otwinowski & Minor, 1997)'
_computing_data_reduction        
'HKL Denzo (Otwinowski & Minor, 1997) & maXus (Mackay et al., 1998)'
_computing_structure_solution    'SHELXS-97 (Sheldrick, 1997)'
_computing_structure_refinement  'SHELXL-97 (Sheldrick, 1997)'
_computing_molecular_graphics    'Bruker SHELXTL V5.1 (Sheldrick, 1998)'
_computing_publication_material  'SHELXL-97 (Sheldrick, 1997)'

_refine_special_details          
;
Refinement of F^2^ against ALL reflections. The weighted R-factor wR and
goodness of fit S are based on F^2^, conventional R-factors R are based
on F, with F set to zero for negative F^2^. The threshold expression of
F^2^ > 2sigma(F^2^) is used only for calculating R-factors(gt) etc. and is
not relevant to the choice of reflections for refinement. R-factors based
on F^2^ are statistically about twice as large as those based on F, and R-
factors based on ALL data will be even larger.
;

_refine_ls_structure_factor_coef Fsqd
_refine_ls_matrix_type           full
_refine_ls_weighting_scheme      calc
_refine_ls_weighting_details     
'calc w=1/[\s^2^(Fo^2^)+(0.0249P)^2^+0.0000P] where P=(Fo^2^+2Fc^2^)/3'
_atom_sites_solution_primary     direct
_atom_sites_solution_secondary   difmap
_atom_sites_solution_hydrogens   geom
_refine_ls_hydrogen_treatment    mixed
_refine_ls_extinction_method     SHELXL
_refine_ls_extinction_coef       0.0096(9)
_refine_ls_extinction_expression Fc^*^=kFc[1+0.001xFc^2^\l^3^/sin(2\q)]^-1/4^
_refine_ls_number_reflns         1003
_refine_ls_number_parameters     67
_refine_ls_number_restraints     0
_refine_ls_R_factor_all          0.0594
_refine_ls_R_factor_gt           0.0236
_refine_ls_wR_factor_ref         0.0508
_refine_ls_wR_factor_gt          0.0460
_refine_ls_goodness_of_fit_ref   0.882
_refine_ls_restrained_S_all      0.882
_refine_ls_shift/su_max          0.000
_refine_ls_shift/su_mean         0.000

loop_
_atom_site_label
_atom_site_type_symbol
_atom_site_fract_x
_atom_site_fract_y
_atom_site_fract_z
_atom_site_U_iso_or_equiv
_atom_site_adp_type
_atom_site_occupancy
_atom_site_symmetry_multiplicity
_atom_site_calc_flag
_atom_site_refinement_flags
_atom_site_disorder_assembly
_atom_site_disorder_group
Zn1 Zn 0.25565(4) 0.2500 0.2500 0.02019(13) Uani 1 2 d S . .
O1 O 0.25761(18) 0.40584(11) 0.36451(16) 0.0267(3) Uani 1 1 d . . .
O2 O 0.40672(18) 0.18209(13) 0.41359(16) 0.0322(4) Uani 1 1 d . . .
O3 O 0.56379(18) 0.19234(13) 0.61254(17) 0.0294(4) Uani 1 1 d . . .
C1 C 0.2500 0.5000 0.3019(4) 0.0304(7) Uani 1 2 d S . .
H1 H 0.2500 0.5000 0.1975 0.037 Uiso 1 2 calc SR . .
C2 C 0.5226(3) 0.22178(19) 0.4839(3) 0.0281(6) Uani 1 1 d . . .
H2 H 0.5833 0.2778 0.4367 0.034 Uiso 1 1 calc R . .
C3 C 0.2500 0.5000 0.7565(4) 0.0289(6) Uani 1 2 d S . .
N1 N 0.3399(3) 0.42716(18) 0.6826(2) 0.0427(6) Uani 1 1 d . . .
H11 H 0.3399 0.4272 0.5861 0.051 Uiso 1 1 calc R . .
H12 H 0.3988 0.3794 0.7308 0.051 Uiso 1 1 calc R . .
N2 N 0.2500 0.5000 0.9040(3) 0.0370(7) Uani 1 2 d S . .
H21 H 0.3089 0.4523 0.9523 0.044 Uiso 0.50 1 calc PR . .
H22 H 0.1911 0.5477 0.9523 0.044 Uiso 0.50 1 calc PR . .

loop_
_atom_site_aniso_label
_atom_site_aniso_U_11
_atom_site_aniso_U_22
_atom_site_aniso_U_33
_atom_site_aniso_U_23
_atom_site_aniso_U_13
_atom_site_aniso_U_12
Zn1 0.0233(2) 0.01936(18) 0.01789(19) -0.00010(14) 0.000 0.000
O1 0.0410(9) 0.0195(7) 0.0194(7) -0.0002(6) -0.0003(9) -0.0013(7)
O2 0.0343(10) 0.0326(10) 0.0297(11) 0.0032(8) -0.0143(8) -0.0037(8)
O3 0.0284(9) 0.0348(10) 0.0250(9) 0.0004(8) -0.0053(8) -0.0045(7)
C1 0.047(2) 0.0253(17) 0.0192(15) 0.000 0.000 -0.0015(19)
C2 0.0282(14) 0.0283(13) 0.0278(15) 0.0025(11) -0.0001(12) -0.0020(10)
C3 0.0307(15) 0.0324(16) 0.0234(15) 0.000 0.000 0.0027(17)
N1 0.0521(15) 0.0528(15) 0.0232(12) -0.0031(12) -0.0024(11) 0.0249(12)
N2 0.0511(18) 0.0353(15) 0.0247(16) 0.000 0.000 0.0153(15)

_geom_special_details            
;
All esds (except the esd in the dihedral angle between two l.s. planes)
are estimated using the full covariance matrix. The cell esds are taken
into account individually in the estimation of esds in distances, angles
and torsion angles; correlations between esds in cell parameters are only
used when they are defined by crystal symmetry. An approximate (isotropic)
treatment of cell esds is used for estimating esds involving l.s. planes.
;

loop_
_geom_bond_atom_site_label_1
_geom_bond_atom_site_label_2
_geom_bond_distance
_geom_bond_site_symmetry_2
_geom_bond_publ_flag
Zn1 O2 2.0855(15) . ?
Zn1 O2 2.0855(15) 4 ?
Zn1 O1 2.0932(13) 4 ?
Zn1 O1 2.0932(13) . ?
Zn1 O3 2.1267(15) 7_565 ?
Zn1 O3 2.1267(15) 6_556 ?
O1 C1 1.239(2) . ?
O2 C2 1.243(2) . ?
O3 C2 1.245(2) . ?
O3 Zn1 2.1267(15) 6_656 ?
C1 O1 1.239(2) 2_565 ?
C1 H1 0.9300 . ?
C2 H2 0.9300 . ?
C3 N1 1.314(2) . ?
C3 N1 1.314(2) 2_565 ?
C3 N2 1.314(4) . ?
N1 H11 0.8600 . ?
N1 H12 0.8600 . ?
N2 H21 0.8600 . ?
N2 H22 0.8600 . ?

loop_
_geom_angle_atom_site_label_1
_geom_angle_atom_site_label_2
_geom_angle_atom_site_label_3
_geom_angle
_geom_angle_site_symmetry_1
_geom_angle_site_symmetry_3
_geom_angle_publ_flag
O2 Zn1 O2 105.57(8) . 4 ?
O2 Zn1 O1 90.14(6) . 4 ?
O2 Zn1 O1 89.32(6) 4 4 ?
O2 Zn1 O1 89.32(6) . . ?
O2 Zn1 O1 90.14(6) 4 . ?
O1 Zn1 O1 179.10(9) 4 . ?
O2 Zn1 O3 168.34(6) . 7_565 ?
O2 Zn1 O3 86.09(6) 4 7_565 ?
O1 Zn1 O3 90.16(6) 4 7_565 ?
O1 Zn1 O3 90.51(6) . 7_565 ?
O2 Zn1 O3 86.09(6) . 6_556 ?
O2 Zn1 O3 168.34(6) 4 6_556 ?
O1 Zn1 O3 90.51(6) 4 6_556 ?
O1 Zn1 O3 90.16(6) . 6_556 ?
O3 Zn1 O3 82.26(8) 7_565 6_556 ?
C1 O1 Zn1 123.95(17) . . ?
C2 O2 Zn1 132.83(15) . . ?
C2 O3 Zn1 130.51(15) . 6_656 ?
O1 C1 O1 126.5(3) . 2_565 ?
O1 C1 H1 116.8 . . ?
O1 C1 H1 116.8 2_565 . ?
O2 C2 O3 125.1(2) . . ?
O2 C2 H2 117.5 . . ?
O3 C2 H2 117.5 . . ?
N1 C3 N1 119.9(3) . 2_565 ?
N1 C3 N2 120.04(16) . . ?
N1 C3 N2 120.04(16) 2_565 . ?
C3 N1 H11 120.0 . . ?
C3 N1 H12 120.0 . . ?
H11 N1 H12 120.0 . . ?
C3 N2 H21 120.0 . . ?
C3 N2 H22 120.0 . . ?
H21 N2 H22 120.0 . . ?

loop_
_geom_hbond_atom_site_label_D
_geom_hbond_atom_site_label_H
_geom_hbond_atom_site_label_A
_geom_hbond_distance_DH
_geom_hbond_distance_HA
_geom_hbond_distance_DA
_geom_hbond_angle_DHA
_geom_hbond_site_symmetry_A
N1 H11 O1 0.86 2.11 2.927(3) 159.7 .
N1 H12 O3 0.86 2.13 2.964(3) 162.3 4_556
N2 H22 O2 0.86 2.14 2.986(2) 167.6 3_556

_diffrn_measured_fraction_theta_max 0.998
_diffrn_reflns_theta_full        27.46
_diffrn_measured_fraction_theta_full 0.998
_refine_diff_density_max         0.277
_refine_diff_density_min         -0.271
_refine_diff_density_rms         0.065