data_Zn_150_00-multiscan
_audit_creation_date              2017-05-13
_audit_creation_method
;
Olex2 1.2
(compiled 2017.03.28 svn.r3405 for OlexSys, GUI svn.r5335)
;
_publ_contact_author_address      ?
_publ_contact_author_email        ?
_publ_contact_author_id_orcid     ?
_publ_contact_author_name         ''
_publ_contact_author_phone        ?
_publ_section_references
;
Dolomanov, O.V., Bourhis, L.J., Gildea, R.J, Howard, J.A.K. & Puschmann, H.
 (2009), J. Appl. Cryst. 42, 339-341.

Sheldrick, G.M. (2008). Acta Cryst. A64, 112-122.
;
_chemical_name_common             ?
_chemical_name_systematic
;
 ? 
;
_chemical_formula_moiety          '0.25(C12 H12 O24 Zn4), C H6 N3'
_chemical_formula_sum             'C4 H9 N3 O6 Zn'
_chemical_formula_weight          260.51
_chemical_melting_point           ?
loop_
  _atom_type_symbol
  _atom_type_description
  _atom_type_scat_dispersion_real
  _atom_type_scat_dispersion_imag
  _atom_type_scat_source
 'C' 'C' 0.0033 0.0016 'International Tables Vol C Tables 4.2.6.8 and 6.1.1.4'
 'H' 'H' 0.0000 0.0000 'International Tables Vol C Tables 4.2.6.8 and 6.1.1.4'
 'N' 'N' 0.0061 0.0033 'International Tables Vol C Tables 4.2.6.8 and 6.1.1.4'
 'O' 'O' 0.0106 0.0060 'International Tables Vol C Tables 4.2.6.8 and 6.1.1.4'
 'Zn' 'Zn' 0.2839 1.4301 'International Tables Vol C Tables 4.2.6.8 and 6.1.1.4'

_space_group_crystal_system       'orthorhombic'
_space_group_IT_number            52
_space_group_name_H-M_alt         'P n n a'
_space_group_name_Hall            '-P 2a 2bc'
loop_
  _space_group_symop_id
  _space_group_symop_operation_xyz
 1 'x, y, z'
 2 '-x+1/2, -y, z'
 3 '-x+1/2, y+1/2, -z+1/2'
 4 'x, -y+1/2, -z+1/2'
 5 '-x, -y, -z'
 6 'x-1/2, y, -z'
 7 'x-1/2, -y-1/2, z-1/2'
 8 '-x, y-1/2, z-1/2'

_cell_length_a                    8.3106(3)
_cell_length_b                    11.6990(5)
_cell_length_c                    8.9515(4)
_cell_angle_alpha                 90.00
_cell_angle_beta                  90.00
_cell_angle_gamma                 90.00
_cell_volume                      870.31(6)
_cell_formula_units_Z             4
_cell_measurement_reflns_used     13408
_cell_measurement_temperature     150.05(10)
_cell_measurement_theta_max      30.4050
_cell_measurement_theta_min       4.8190
_exptl_absorpt_coefficient_mu     2.834
_exptl_absorpt_correction_T_max   ?
_exptl_absorpt_correction_T_min   ?
_exptl_absorpt_correction_type    ?
_exptl_absorpt_process_details    ?
_exptl_crystal_colour             ?
_exptl_crystal_density_diffrn     1.988
_exptl_crystal_density_meas       ?
_exptl_crystal_density_method     'not measured'
_exptl_crystal_description        block
_exptl_crystal_F_000              528
_exptl_crystal_size_max           ?
_exptl_crystal_size_mid           ?
_exptl_crystal_size_min           ?
_exptl_special_details
;
 ? 
;
_diffrn_reflns_av_R_equivalents   0.0265
_diffrn_reflns_av_unetI/netI      0.0087
_diffrn_reflns_limit_h_max        11
_diffrn_reflns_limit_h_min        -11
_diffrn_reflns_limit_k_max        16
_diffrn_reflns_limit_k_min        -16
_diffrn_reflns_limit_l_max        12
_diffrn_reflns_limit_l_min        -12
_diffrn_reflns_number             21705
_diffrn_reflns_theta_full         30.30
_diffrn_reflns_theta_max          30.30
_diffrn_reflns_theta_min          3.77
_diffrn_ambient_temperature       150.05(10)
_diffrn_detector_area_resol_mean  ?
_diffrn_measured_fraction_theta_full 0.9934
_diffrn_measured_fraction_theta_max 0.956
_diffrn_measurement_device_type   'XtaLAB Pro: Kappa single'
_diffrn_measurement_method        ?
_diffrn_radiation_monochromator   graphite
_diffrn_radiation_type            MoK\a
_diffrn_radiation_wavelength      0.71073
_diffrn_source                    'fine-focus sealed tube'
_diffrn_standards_decay_%         ?
_diffrn_standards_interval_count  ?
_diffrn_standards_interval_time   ?
_diffrn_standards_number          ?
_reflns_number_gt                 1227
_reflns_number_total              1253
_reflns_threshold_expression      >2sigma(I)
_computing_cell_refinement        ?
_computing_data_collection        ?
_computing_data_reduction         ?
_computing_molecular_graphics     'Olex2 (Dolomanov et al., 2009)'
_computing_publication_material   'Olex2 (Dolomanov et al., 2009)'
_computing_structure_refinement   'XL (Sheldrick, 2008)'
_computing_structure_solution     'SHELXS-97 (Sheldrick, 1990)'
_refine_diff_density_max          0.277
_refine_diff_density_min          -0.271
_refine_diff_density_rms          0.065
_refine_ls_extinction_coef        ?
_refine_ls_extinction_method      none
_refine_ls_goodness_of_fit_ref    1.298
_refine_ls_hydrogen_treatment     constr
_refine_ls_matrix_type            full
_refine_ls_number_parameters      66
_refine_ls_number_reflns          1253
_refine_ls_number_restraints      0
_refine_ls_R_factor_all           0.0392
_refine_ls_R_factor_gt            0.0388
_refine_ls_restrained_S_all       1.298
_refine_ls_shift/su_max           0.000
_refine_ls_shift/su_mean          0.000
_refine_ls_structure_factor_coef  Fsqd
_refine_ls_weighting_details
'calc w=1/[\s^2^(Fo^2^)+(0.0620P)^2^+0.4656P] where P=(Fo^2^+2Fc^2^)/3'
_refine_ls_weighting_scheme       calc
_refine_ls_wR_factor_gt           0.1033
_refine_ls_wR_factor_ref          0.1036
_refine_special_details
;
 Refinement of F^2^ against ALL reflections.  The weighted R-factor wR and 
 goodness of fit S are based on F^2^, conventional R-factors R are based 
 on F, with F set to zero for negative F^2^. The threshold expression of 
 F^2^ > 2sigma(F^2^) is used only for calculating R-factors(gt) etc. and is 
 not relevant to the choice of reflections for refinement.  R-factors based 
 on F^2^ are statistically about twice as large as those based on F, and R- 
 factors based on ALL data will be even larger. 
;
_olex2_refinement_description
;
1. Fixed Uiso
 At 1.2 times of:
  All C(H) groups, All N(H,H) groups
2. Others
 Fixed Sof: H2A(0.5) H2B(0.5)
3.a Aromatic/amide H refined with riding coordinates:
 C2(H2), C1(H1)
3.b X=CH2 refined with riding coordinates:
 N1(H1A,H1B), N2(H2A,H2B)
;
_atom_sites_solution_hydrogens    geom
_atom_sites_solution_primary      direct
_atom_sites_solution_secondary    difmap
loop_
  _atom_site_label
  _atom_site_type_symbol
  _atom_site_fract_x
  _atom_site_fract_y
  _atom_site_fract_z
  _atom_site_U_iso_or_equiv
  _atom_site_adp_type
  _atom_site_occupancy
  _atom_site_calc_flag
  _atom_site_disorder_assembly
  _atom_site_disorder_group
  _atom_site_site_symmetry_order
  _atom_site_refinement_flags_posn
  _atom_site_refinement_flags_adp
  _atom_site_refinement_flags_occupancy
 Zn1 Zn 0.25922(3) 0.7500 0.2500 0.00419(15) Uani 1 d . . 2 S T P
 O2 O 0.40941(14) 0.82012(9) 0.41314(12) 0.0104(2) Uani 1 d . . 1 . . .
 O1 O 0.56565(13) 0.80817(9) 0.61405(12) 0.0089(2) Uani 1 d . . 1 . . .
 O3 O 0.26019(13) 0.59499(10) 0.36678(13) 0.0088(3) Uani 1 d . . 1 . . .
 N1 N 0.34301(18) 0.57329(12) 0.68291(14) 0.0147(3) Uani 1 d . . 1 . . .
 H1A H 0.4031 0.6206 0.7308 0.018 Uiso 1 calc . . 1 R . .
 H1B H 0.3429 0.5732 0.5868 0.018 Uiso 1 calc . . 1 R . .
 C2 C 0.52677(18) 0.77909(14) 0.48379(16) 0.0084(3) Uani 1 d . . 1 . . .
 H2 H 0.5888 0.7236 0.4366 0.010 Uiso 1 calc . . 1 R . .
 C1 C 0.2500 0.5000 0.3022(2) 0.0108(4) Uani 1 d . . 2 S T P
 H1 H 0.2500 0.5000 0.1983 0.013 Uiso 1 calc . . 2 RS T P
 N2 N 0.2500 0.5000 0.9058(2) 0.0124(4) Uani 1 d . . 2 S T P
 H2A H 0.1900 0.4527 0.9538 0.015 Uiso 0.50 calc . . 1 R . .
 H2B H 0.3100 0.5473 0.9538 0.015 Uiso 0.50 calc . . 1 R . .
 C3 C 0.2500 0.5000 0.7577(3) 0.0105(7) Uani 1 d . . 2 S T P

loop_
  _atom_site_aniso_label
  _atom_site_aniso_U_11
  _atom_site_aniso_U_22
  _atom_site_aniso_U_33
  _atom_site_aniso_U_23
  _atom_site_aniso_U_13
  _atom_site_aniso_U_12
 Zn1 0.0050(2) 0.0045(2) 0.0031(2) -0.00002(6) 0.000 0.000
 O2 0.0105(5) 0.0103(5) 0.0105(5) -0.0021(4) -0.0060(4) 0.0016(4)
 O1 0.0086(5) 0.0122(5) 0.0061(5) -0.0003(3) -0.0020(4) 0.0022(4)
 O3 0.0159(6) 0.0054(5) 0.0052(5) 0.0001(4) -0.0008(3) 0.0002(3)
 N1 0.0176(7) 0.0192(6) 0.0073(6) 0.0026(4) -0.0020(5) -0.0109(5)
 C2 0.0089(6) 0.0087(6) 0.0076(6) -0.0003(5) -0.0007(5) 0.0015(6)
 C1 0.0213(12) 0.0081(10) 0.0031(11) 0.000 0.000 0.0002(6)
 N2 0.0192(10) 0.0132(9) 0.0049(8) 0.000 0.000 -0.0058(6)
 C3 0.0102(15) 0.0102(17) 0.0111(16) 0.000 0.000 -0.0003(7)

_geom_special_details
;
 All esds (except the esd in the dihedral angle between two l.s. planes) 
 are estimated using the full covariance matrix.  The cell esds are taken 
 into account individually in the estimation of esds in distances, angles 
 and torsion angles; correlations between esds in cell parameters are only 
 used when they are defined by crystal symmetry.  An approximate (isotropic) 
 treatment of cell esds is used for estimating esds involving l.s. planes. 
;
loop_
  _geom_bond_atom_site_label_1
  _geom_bond_atom_site_label_2
  _geom_bond_distance
  _geom_bond_site_symmetry_2
  _geom_bond_publ_flag
 Zn1 O2 2.0889(11) . ?
 Zn1 O2 2.0889(11) 4_565 ?
 Zn1 O1 2.1289(11) 6_556 ?
 Zn1 O1 2.1289(11) 7_575 ?
 Zn1 O3 2.0932(12) 4_565 ?
 Zn1 O3 2.0932(12) . ?
 O2 C2 1.2577(18) . ?
 O1 Zn1 2.1289(11) 6_656 ?
 O1 C2 1.2568(17) . ?
 O3 C1 1.2553(15) . ?
 N1 H1A 0.8600 . ?
 N1 H1B 0.8600 . ?
 N1 C3 1.3346(17) . ?
 C2 H2 0.9300 . ?
 C1 O3 1.2553(15) 2_565 ?
 C1 H1 0.9300 . ?
 N2 H2A 0.8600 . ?
 N2 H2B 0.8600 . ?
 N2 C3 1.325(3) . ?
 C3 N1 1.3346(17) 2_565 ?

loop_
  _geom_angle_atom_site_label_1
  _geom_angle_atom_site_label_2
  _geom_angle_atom_site_label_3
  _geom_angle
  _geom_angle_site_symmetry_1
  _geom_angle_site_symmetry_3
  _geom_angle_publ_flag
 O2 Zn1 O2 106.61(7) . 4_565 ?
 O2 Zn1 O1 85.78(4) . 6_556 ?
 O2 Zn1 O1 167.61(5) 4_565 6_556 ?
 O2 Zn1 O1 167.61(5) . 7_575 ?
 O2 Zn1 O1 85.78(4) 4_565 7_575 ?
 O2 Zn1 O3 90.38(4) . 4_565 ?
 O2 Zn1 O3 89.36(4) . . ?
 O2 Zn1 O3 90.38(4) 4_565 . ?
 O2 Zn1 O3 89.36(4) 4_565 4_565 ?
 O1 Zn1 O1 81.84(6) 7_575 6_556 ?
 O3 Zn1 O1 89.68(4) . 6_556 ?
 O3 Zn1 O1 90.66(4) . 7_575 ?
 O3 Zn1 O1 89.68(4) 4_565 7_575 ?
 O3 Zn1 O1 90.66(4) 4_565 6_556 ?
 O3 Zn1 O3 179.56(6) 4_565 . ?
 C2 O2 Zn1 131.69(10) . . ?
 C2 O1 Zn1 129.64(10) . 6_656 ?
 C1 O3 Zn1 122.47(11) . . ?
 H1A N1 H1B 120.0 . . ?
 C3 N1 H1A 120.0 . . ?
 C3 N1 H1B 120.0 . . ?
 O2 C2 H2 117.9 . . ?
 O1 C2 O2 124.23(14) . . ?
 O1 C2 H2 117.9 . . ?
 O3 C1 O3 125.2(2) . 2_565 ?
 O3 C1 H1 117.4 . . ?
 O3 C1 H1 117.4 2_565 . ?
 H2A N2 H2B 120.0 . . ?
 C3 N2 H2A 120.0 . . ?
 C3 N2 H2B 120.0 . . ?
 N1 C3 N1 119.8(2) 2_565 . ?
 N2 C3 N1 120.12(10) . 2_565 ?
 N2 C3 N1 120.12(10) . . ?

_olex2_submission_special_instructions 'No special instructions were received'
