####################################################################### 
# 
# This file contains crystal structure data downloaded from the 
# Cambridge Structural Database (CSD) hosted by the Cambridge 
# Crystallographic Data Centre (CCDC).
# 
# Full information about CCDC data access policies and citation 
# guidelines are available at http://www.ccdc.cam.ac.uk/access/V1 
# 
# Audit and citation data items may have been added by the CCDC. 
# Please retain this information to preserve the provenance of 
# this file and to allow appropriate attribution of the data. 
# 
#######################################################################

data_2-292K
_audit_block_doi                 10.5517/ccz7v01
_database_code_depnum_ccdc_archive 'CCDC 901263'
loop_
_citation_id
_citation_doi
_citation_year
1 10.1002/chem.201303425 2014
_audit_update_record             
;
2013-08-30 deposited with the CCDC.	2022-08-09 downloaded from the CCDC.
;

_audit_creation_method           SHELXL-97
_chemical_name_systematic        
; 
 ? 
;
_chemical_name_common            ?
_chemical_melting_point          ?
_chemical_formula_moiety         ?
_chemical_formula_sum            'C5 H11 Mg N O6'
_chemical_formula_weight         205.46

loop_
_atom_type_symbol
_atom_type_description
_atom_type_scat_dispersion_real
_atom_type_scat_dispersion_imag
_atom_type_scat_source
C C 0.0033 0.0016 'International Tables Vol C Tables 4.2.6.8 and 6.1.1.4'
H H 0.0000 0.0000 'International Tables Vol C Tables 4.2.6.8 and 6.1.1.4'
N N 0.0061 0.0033 'International Tables Vol C Tables 4.2.6.8 and 6.1.1.4'
O O 0.0106 0.0060 'International Tables Vol C Tables 4.2.6.8 and 6.1.1.4'
Mg Mg 0.0486 0.0363 'International Tables Vol C Tables 4.2.6.8 and 6.1.1.4'

_symmetry_cell_setting           Orthorhombic
_symmetry_space_group_name_H-M   'P na2(1)'

loop_
_symmetry_equiv_pos_as_xyz
'x, y, z'
'-x, -y, z+1/2'
'x+1/2, -y+1/2, z'
'-x+1/2, y+1/2, z+1/2'

_cell_length_a                   8.8978(2)
_cell_length_b                   8.1160(2)
_cell_length_c                   11.8139(3)
_cell_angle_alpha                90.00
_cell_angle_beta                 90.00
_cell_angle_gamma                90.00
_cell_volume                     853.14(4)
_cell_formula_units_Z            4
_cell_measurement_temperature    292
_cell_measurement_reflns_used    5604
_cell_measurement_theta_min      3.395
_cell_measurement_theta_max      30.999

_exptl_crystal_description       column
_exptl_crystal_colour            colorless
_exptl_crystal_size_max          0.26
_exptl_crystal_size_mid          0.16
_exptl_crystal_size_min          0.15
_exptl_crystal_density_meas      ?
_exptl_crystal_density_diffrn    1.600
_exptl_crystal_density_method    'not measured'
_exptl_crystal_F_000             432
_exptl_absorpt_coefficient_mu    0.208
_exptl_absorpt_correction_type   multi-scan
_exptl_absorpt_correction_T_min  0.905
_exptl_absorpt_correction_T_max  0.975
_exptl_absorpt_process_details   
;
multi-scan from symmetry-related measurements 
 Sortav (Blessing 1995, 1997)
;

_exptl_special_details           
; 
 ? 
;

_diffrn_ambient_temperature      292
_diffrn_radiation_wavelength     0.71073
_diffrn_radiation_type           MoK\a
_diffrn_radiation_source         'fine-focus sealed tube'
_diffrn_radiation_monochromator  graphite
_diffrn_measurement_device_type  'NONIUS KappaCCD'
_diffrn_measurement_method       CCD
_diffrn_detector_area_resol_mean 9
_diffrn_standards_number         ?
_diffrn_standards_interval_count ?
_diffrn_standards_interval_time  ?
_diffrn_standards_decay_%        0
_diffrn_reflns_number            14741
_diffrn_reflns_av_R_equivalents  0.0330
_diffrn_reflns_av_sigmaI/netI    0.0349
_diffrn_reflns_limit_h_min       -12
_diffrn_reflns_limit_h_max       12
_diffrn_reflns_limit_k_min       -11
_diffrn_reflns_limit_k_max       11
_diffrn_reflns_limit_l_min       -17
_diffrn_reflns_limit_l_max       17
_diffrn_reflns_theta_min         3.40
_diffrn_reflns_theta_max         30.99
_reflns_number_total             2662
_reflns_number_gt                2110
_reflns_threshold_expression     >2sigma(I)

_computing_data_collection       'KappaCCD (Nonius B. V., 1998)'
_computing_cell_refinement       'HKL Scalepack (Otwinowski & Minor, 1997)'
_computing_data_reduction        
'HKL Denzo (Otwinowski & Minor, 1997) & maXus (Mackay et al., 1998)'
_computing_structure_solution    'SHELXS-97 (Sheldrick, 1997)'
_computing_structure_refinement  'SHELXL-97 (Sheldrick, 1997)'
_computing_molecular_graphics    'Bruker SHELXTL V5.1 (Sheldrick, 1998)'
_computing_publication_material  'SHELXL-97 (Sheldrick, 1997)'

_refine_special_details          
; 
 Refinement of F^2^ against ALL reflections.  The weighted R-factor wR and 
 goodness of fit S are based on F^2^, conventional R-factors R are based 
 on F, with F set to zero for negative F^2^. The threshold expression of 
 F^2^ > 2sigma(F^2^) is used only for calculating R-factors(gt) etc. and is 
 not relevant to the choice of reflections for refinement.  R-factors based 
 on F^2^ are statistically about twice as large as those based on F, and R- 
 factors based on ALL data will be even larger. 
;

_refine_ls_structure_factor_coef Fsqd
_refine_ls_matrix_type           full
_refine_ls_weighting_scheme      calc
_refine_ls_weighting_details     
'calc w=1/[\s^2^(Fo^2^)+(0.0309P)^2^+0.0000P] where P=(Fo^2^+2Fc^2^)/3'
_atom_sites_solution_primary     direct
_atom_sites_solution_secondary   difmap
_atom_sites_solution_hydrogens   difmap
_refine_ls_hydrogen_treatment    mixed
_refine_ls_extinction_method     SHELXL
_refine_ls_extinction_coef       0.020(2)
_refine_ls_extinction_expression Fc^*^=kFc[1+0.001xFc^2^\l^3^/sin(2\q)]^-1/4^
_refine_ls_abs_structure_details 'Flack H D (1983), Acta Cryst. A39, 876-881'
_refine_ls_abs_structure_Flack   0.00
_refine_ls_number_reflns         2662
_refine_ls_number_parameters     121
_refine_ls_number_restraints     1
_refine_ls_R_factor_all          0.0422
_refine_ls_R_factor_gt           0.0272
_refine_ls_wR_factor_ref         0.0574
_refine_ls_wR_factor_gt          0.0540
_refine_ls_goodness_of_fit_ref   0.970
_refine_ls_restrained_S_all      0.969
_refine_ls_shift/su_max          0.000
_refine_ls_shift/su_mean         0.000

loop_
_atom_site_label
_atom_site_type_symbol
_atom_site_fract_x
_atom_site_fract_y
_atom_site_fract_z
_atom_site_U_iso_or_equiv
_atom_site_adp_type
_atom_site_occupancy
_atom_site_symmetry_multiplicity
_atom_site_calc_flag
_atom_site_refinement_flags
_atom_site_disorder_assembly
_atom_site_disorder_group
Mg1 Mg 0.52872(4) 0.50259(5) 0.49986(4) 0.01763(9) Uani 1 1 d . . .
O1 O 0.32532(9) 0.39656(10) 0.55966(7) 0.02481(18) Uani 1 1 d . . .
O2 O 0.14818(10) 0.20337(10) 0.55681(7) 0.0284(2) Uani 1 1 d . . .
O3 O 0.41442(10) 0.71163(10) 0.44232(7) 0.02735(19) Uani 1 1 d . . .
O4 O 0.23110(9) 0.89783(10) 0.43816(7) 0.02568(19) Uani 1 1 d . . .
O5 O 0.54636(10) 0.61817(12) 0.65898(7) 0.0263(2) Uani 1 1 d . . .
O6 O 0.50607(10) 0.61182(11) 0.84430(7) 0.0269(2) Uani 1 1 d . . .
C1 C 0.26921(13) 0.26366(14) 0.52528(10) 0.0234(3) Uani 1 1 d . . .
H1 H 0.3233 0.2052 0.4713 0.028 Uiso 1 1 calc R . .
C2 C 0.29891(14) 0.77619(16) 0.47842(10) 0.0271(3) Uani 1 1 d . . .
H2 H 0.2572 0.7292 0.5430 0.033 Uiso 1 1 calc R . .
C3 C 0.51305(16) 0.54624(13) 0.74956(12) 0.0222(2) Uani 1 1 d . . .
H3 H 0.4918 0.4342 0.7454 0.027 Uiso 1 1 calc R . .
C4 C -0.01594(17) 0.4612(2) 0.71532(14) 0.0411(4) Uani 1 1 d . . .
H4A H -0.0570 0.5004 0.6442 0.049 Uiso 1 1 calc R . .
H4B H -0.0072 0.3422 0.7106 0.049 Uiso 1 1 calc R . .
C5 C -0.12016(19) 0.5045(2) 0.80829(18) 0.0507(5) Uani 1 1 d . . .
H5A H -0.0750 0.4766 0.8796 0.076 Uiso 1 1 calc R . .
H5B H -0.2123 0.4443 0.7994 0.076 Uiso 1 1 calc R . .
H5C H -0.1407 0.6205 0.8062 0.076 Uiso 1 1 calc R . .
N1 N 0.13561(13) 0.53360(14) 0.73221(10) 0.0325(3) Uani 1 1 d . . .
H1A H 0.1293 0.6430 0.7298 0.049 Uiso 1 1 calc R . .
H1B H 0.1969 0.4986 0.6778 0.049 Uiso 1 1 calc R . .
H1C H 0.1715 0.5026 0.7992 0.049 Uiso 1 1 calc R . .

loop_
_atom_site_aniso_label
_atom_site_aniso_U_11
_atom_site_aniso_U_22
_atom_site_aniso_U_33
_atom_site_aniso_U_23
_atom_site_aniso_U_13
_atom_site_aniso_U_12
Mg1 0.01772(15) 0.01823(17) 0.01695(16) 0.00013(12) 0.00137(15) 0.00025(14)
O1 0.0227(4) 0.0242(4) 0.0275(4) -0.0032(4) 0.0020(3) -0.0041(3)
O2 0.0260(4) 0.0275(5) 0.0316(5) -0.0048(4) 0.0034(4) -0.0072(4)
O3 0.0253(4) 0.0259(4) 0.0308(4) 0.0033(4) 0.0038(4) 0.0057(4)
O4 0.0245(4) 0.0236(5) 0.0290(4) 0.0023(4) 0.0034(4) 0.0047(4)
O5 0.0339(5) 0.0260(5) 0.0191(4) 0.0009(4) 0.0021(3) -0.0032(4)
O6 0.0353(5) 0.0262(5) 0.0191(5) -0.0012(4) 0.0012(4) 0.0003(4)
C1 0.0259(6) 0.0238(7) 0.0207(7) -0.0012(5) 0.0024(4) -0.0007(5)
C2 0.0296(6) 0.0253(6) 0.0265(8) 0.0036(5) 0.0051(5) 0.0037(5)
C3 0.0252(7) 0.0195(5) 0.0218(5) -0.0009(6) -0.0009(4) -0.0021(5)
C4 0.0369(8) 0.0378(8) 0.0485(9) -0.0083(7) -0.0049(7) -0.0009(6)
C5 0.0325(8) 0.0481(11) 0.0717(13) 0.0076(8) 0.0112(8) 0.0019(7)
N1 0.0330(7) 0.0318(6) 0.0327(6) 0.0004(5) 0.0046(5) 0.0035(5)

_geom_special_details            
; 
 All esds (except the esd in the dihedral angle between two l.s. planes) 
 are estimated using the full covariance matrix.  The cell esds are taken 
 into account individually in the estimation of esds in distances, angles 
 and torsion angles; correlations between esds in cell parameters are only 
 used when they are defined by crystal symmetry.  An approximate (isotropic) 
 treatment of cell esds is used for estimating esds involving l.s. planes. 
;

loop_
_geom_bond_atom_site_label_1
_geom_bond_atom_site_label_2
_geom_bond_distance
_geom_bond_site_symmetry_2
_geom_bond_publ_flag
Mg1 O6 2.0822(10) 2_664 ?
Mg1 O3 2.0915(9) . ?
Mg1 O2 2.0921(9) 3 ?
Mg1 O4 2.1040(9) 3_565 ?
Mg1 O5 2.1068(10) . ?
Mg1 O1 2.1249(9) . ?
O1 C1 1.2560(14) . ?
O2 C1 1.2401(14) . ?
O2 Mg1 2.0921(9) 3_455 ?
O3 C2 1.2300(15) . ?
O4 C2 1.2509(14) . ?
O4 Mg1 2.1040(9) 3_465 ?
O5 C3 1.2545(17) . ?
O6 C3 1.2409(17) . ?
O6 Mg1 2.0822(10) 2_665 ?
C1 H1 0.9300 . ?
C2 H2 0.9300 . ?
C3 H3 0.9300 . ?
C4 C5 1.480(2) . ?
C4 N1 1.484(2) . ?
C4 H4A 0.9700 . ?
C4 H4B 0.9700 . ?
C5 H5A 0.9600 . ?
C5 H5B 0.9600 . ?
C5 H5C 0.9600 . ?
N1 H1A 0.8900 . ?
N1 H1B 0.8900 . ?
N1 H1C 0.8900 . ?

loop_
_geom_angle_atom_site_label_1
_geom_angle_atom_site_label_2
_geom_angle_atom_site_label_3
_geom_angle
_geom_angle_site_symmetry_1
_geom_angle_site_symmetry_3
_geom_angle_publ_flag
O6 Mg1 O3 90.15(4) 2_664 . ?
O6 Mg1 O2 90.17(4) 2_664 3 ?
O3 Mg1 O2 178.55(4) . 3 ?
O6 Mg1 O4 89.59(4) 2_664 3_565 ?
O3 Mg1 O4 89.54(4) . 3_565 ?
O2 Mg1 O4 89.05(4) 3 3_565 ?
O6 Mg1 O5 175.71(4) 2_664 . ?
O3 Mg1 O5 88.00(4) . . ?
O2 Mg1 O5 91.77(4) 3 . ?
O4 Mg1 O5 94.26(4) 3_565 . ?
O6 Mg1 O1 89.21(3) 2_664 . ?
O3 Mg1 O1 91.29(4) . . ?
O2 Mg1 O1 90.13(4) 3 . ?
O4 Mg1 O1 178.54(4) 3_565 . ?
O5 Mg1 O1 86.97(4) . . ?
C1 O1 Mg1 125.37(7) . . ?
C1 O2 Mg1 131.29(8) . 3_455 ?
C2 O3 Mg1 129.73(8) . . ?
C2 O4 Mg1 125.75(8) . 3_465 ?
C3 O5 Mg1 122.43(8) . . ?
C3 O6 Mg1 127.75(8) . 2_665 ?
O2 C1 O1 125.94(11) . . ?
O2 C1 H1 117.0 . . ?
O1 C1 H1 117.0 . . ?
O3 C2 O4 127.41(12) . . ?
O3 C2 H2 116.3 . . ?
O4 C2 H2 116.3 . . ?
O6 C3 O5 125.56(10) . . ?
O6 C3 H3 117.2 . . ?
O5 C3 H3 117.2 . . ?
C5 C4 N1 112.05(14) . . ?
C5 C4 H4A 109.2 . . ?
N1 C4 H4A 109.2 . . ?
C5 C4 H4B 109.2 . . ?
N1 C4 H4B 109.2 . . ?
H4A C4 H4B 107.9 . . ?
C4 C5 H5A 109.5 . . ?
C4 C5 H5B 109.5 . . ?
H5A C5 H5B 109.5 . . ?
C4 C5 H5C 109.5 . . ?
H5A C5 H5C 109.5 . . ?
H5B C5 H5C 109.5 . . ?
C4 N1 H1A 109.5 . . ?
C4 N1 H1B 109.5 . . ?
H1A N1 H1B 109.5 . . ?
C4 N1 H1C 109.5 . . ?
H1A N1 H1C 109.5 . . ?
H1B N1 H1C 109.5 . . ?

loop_
_geom_hbond_atom_site_label_D
_geom_hbond_atom_site_label_H
_geom_hbond_atom_site_label_A
_geom_hbond_distance_DH
_geom_hbond_distance_HA
_geom_hbond_distance_DA
_geom_hbond_angle_DHA
_geom_hbond_site_symmetry_A
N1 H1B O1 0.89 1.98 2.8709(14) 173.9 .
N1 H1B O2 0.89 2.82 3.3897(13) 122.8 .
N1 H1C O4 0.89 2.04 2.9225(15) 170.1 4_545
N1 H1A O5 0.89 2.24 3.0605(15) 153.8 3_465
N1 H1A O6 0.89 2.64 3.3709(14) 139.5 3_465
C4 H4B O2 0.97 2.55 3.1650(19) 121.6 .
C4 H4B O3 0.97 3.05 3.480(2) 108.4 4_545
C5 H5A O3 0.96 2.69 3.392(2) 130.8 4_545
C5 H5C O6 0.96 2.57 3.338(2) 136.6 3_465
C1 H1 O4 0.93 2.65 3.1607(14) 114.9 1_545
C1 H1 O6 0.93 2.60 3.0969(14) 114.0 2_664
C2 H2 O1 0.93 2.77 3.2357(16) 111.7 .
C2 H2 O5 0.93 3.05 3.3231(15) 98.8 .
C2 H2 O5 0.93 2.63 3.2148(15) 121.2 3_465
C3 H3 O1 0.93 2.66 3.0495(16) 105.6 .
C3 H3 O2 0.93 2.85 3.2765(16) 109.0 3
C3 H3 O3 0.93 2.74 3.1595(16) 108.3 2_665
C3 H3 O4 0.93 3.03 3.3368(17) 100.8 4_545

_diffrn_measured_fraction_theta_max 0.999
_diffrn_reflns_theta_full        30.99
_diffrn_measured_fraction_theta_full 0.999
_refine_diff_density_max         0.168
_refine_diff_density_min         -0.205
_refine_diff_density_rms         0.044