####################################################################### 
# 
# This file contains crystal structure data downloaded from the 
# Cambridge Structural Database (CSD) hosted by the Cambridge 
# Crystallographic Data Centre (CCDC).
# 
# Full information about CCDC data access policies and citation 
# guidelines are available at http://www.ccdc.cam.ac.uk/access/V1 
# 
# Audit and citation data items may have been added by the CCDC. 
# Please retain this information to preserve the provenance of 
# this file and to allow appropriate attribution of the data. 
# 
#######################################################################

data_3-450K
_audit_block_doi                 10.5517/ccdc.csd.cc1154v6
_database_code_depnum_ccdc_archive 'CCDC 958267'
loop_
_citation_id
_citation_doi
_citation_year
1 10.1002/chem.201303425 2014
_audit_update_record             
;
2013-08-30 deposited with the CCDC.	2022-07-19 downloaded from the CCDC.
;

_audit_creation_method           SHELXL-97
_chemical_name_systematic        
; 
 ? 
;
_chemical_name_common            ?
_chemical_melting_point          ?
_chemical_formula_moiety         ?
_chemical_formula_sum            'C10 H20 Mg2 N2 O12'
_chemical_formula_weight         408.90

loop_
_atom_type_symbol
_atom_type_description
_atom_type_scat_dispersion_real
_atom_type_scat_dispersion_imag
_atom_type_scat_source
C C 0.0033 0.0016 'International Tables Vol C Tables 4.2.6.8 and 6.1.1.4'
H H 0.0000 0.0000 'International Tables Vol C Tables 4.2.6.8 and 6.1.1.4'
N N 0.0061 0.0033 'International Tables Vol C Tables 4.2.6.8 and 6.1.1.4'
O O 0.0106 0.0060 'International Tables Vol C Tables 4.2.6.8 and 6.1.1.4'
Mg Mg 0.0486 0.0363 'International Tables Vol C Tables 4.2.6.8 and 6.1.1.4'

_symmetry_cell_setting           Trigonal
_symmetry_space_group_name_H-M   'P -31c'

loop_
_symmetry_equiv_pos_as_xyz
'x, y, z'
'-y, x-y, z'
'-x+y, -x, z'
'-y, -x, -z+1/2'
'-x+y, y, -z+1/2'
'x, x-y, -z+1/2'
'-x, -y, -z'
'y, -x+y, -z'
'x-y, x, -z'
'y, x, z-1/2'
'x-y, -y, z-1/2'
'-x, -x+y, z-1/2'

_cell_length_a                   8.4982(3)
_cell_length_b                   8.4982(3)
_cell_length_c                   13.6708(5)
_cell_angle_alpha                90.00
_cell_angle_beta                 90.00
_cell_angle_gamma                120.00
_cell_volume                     855.02(5)
_cell_formula_units_Z            2
_cell_measurement_temperature    450.0
_cell_measurement_reflns_used    6337
_cell_measurement_theta_min      3.14
_cell_measurement_theta_max      30.17

_exptl_crystal_description       block
_exptl_crystal_colour            colorless
_exptl_crystal_size_max          0.29
_exptl_crystal_size_mid          0.25
_exptl_crystal_size_min          0.20
_exptl_crystal_density_meas      ?
_exptl_crystal_density_diffrn    1.588
_exptl_crystal_density_method    'not measured'
_exptl_crystal_F_000             428
_exptl_absorpt_coefficient_mu    0.207
_exptl_absorpt_correction_T_max  1.00000
_exptl_absorpt_correction_T_min  0.61883
_exptl_absorpt_correction_type   multi-scan
_exptl_absorpt_process_details   
;
CrysAlisPro, Agilent Technologies,
Empirical absorption correction using spherical harmonics,
implemented in SCALE3 ABSPACK scaling algorithm (Blessing 1995, 1997).
;

_exptl_special_details           
; 
 ? 
;

_diffrn_ambient_temperature      450.0
_diffrn_radiation_wavelength     0.71073
_diffrn_radiation_type           MoK\a
_diffrn_radiation_source         'SuperNova (Mo) X-ray Source'
_diffrn_radiation_monochromator  mirror
_diffrn_measurement_device_type  'SuperNova, Dual, Cu at zero, AtlasCCD'
_diffrn_measurement_method       '\w scans'
_diffrn_detector_area_resol_mean 10.3914
_diffrn_standards_number         ?
_diffrn_standards_interval_count ?
_diffrn_standards_interval_time  ?
_diffrn_standards_decay_%        0
_diffrn_reflns_number            13566
_diffrn_reflns_av_R_equivalents  0.0255
_diffrn_reflns_av_sigmaI/netI    0.0081
_diffrn_reflns_limit_h_min       -11
_diffrn_reflns_limit_h_max       11
_diffrn_reflns_limit_k_min       -11
_diffrn_reflns_limit_k_max       11
_diffrn_reflns_limit_l_min       -18
_diffrn_reflns_limit_l_max       17
_diffrn_reflns_theta_min         4.07
_diffrn_reflns_theta_max         28.27
_reflns_number_total             717
_reflns_number_gt                626
_reflns_threshold_expression     >2sigma(I)

_computing_data_collection       'CrysAlisPro (Agilent Technologies, 2012)'
_computing_cell_refinement       'CrysAlisPro (Agilent Technologies, 2012)'
_computing_data_reduction        'CrysAlisPro (Agilent Technologies, 2012)'
_computing_structure_solution    'SHELXS-97 (Sheldrick, 1990)'
_computing_structure_refinement  'SHELXL-97 (Sheldrick, 1997)'
_computing_molecular_graphics    'Bruker SHELXTL V5.1 (Sheldrick, 1998)'
_computing_publication_material  'SHELXL-97 (Sheldrick, 1997)'

_refine_special_details          
; 
 Refinement of F^2^ against ALL reflections.  The weighted R-factor wR and 
 goodness of fit S are based on F^2^, conventional R-factors R are based 
 on F, with F set to zero for negative F^2^. The threshold expression of 
 F^2^ > 2sigma(F^2^) is used only for calculating R-factors(gt) etc. and is 
 not relevant to the choice of reflections for refinement.  R-factors based 
 on F^2^ are statistically about twice as large as those based on F, and R- 
 factors based on ALL data will be even larger. 
;

_refine_ls_structure_factor_coef Fsqd
_refine_ls_matrix_type           full
_refine_ls_weighting_scheme      calc
_refine_ls_weighting_details     
'calc w=1/[\s^2^(Fo^2^)+(0.0553P)^2^+0.2762P] where P=(Fo^2^+2Fc^2^)/3'
_atom_sites_solution_primary     direct
_atom_sites_solution_secondary   difmap
_atom_sites_solution_hydrogens   geom
_refine_ls_hydrogen_treatment    constr.
_refine_ls_extinction_method     none
_refine_ls_extinction_coef       ?
_refine_ls_number_reflns         717
_refine_ls_number_parameters     54
_refine_ls_number_restraints     0
_refine_ls_R_factor_all          0.0386
_refine_ls_R_factor_gt           0.0344
_refine_ls_wR_factor_ref         0.1075
_refine_ls_wR_factor_gt          0.1037
_refine_ls_goodness_of_fit_ref   1.120
_refine_ls_restrained_S_all      1.120
_refine_ls_shift/su_max          0.000
_refine_ls_shift/su_mean         0.000

loop_
_atom_site_label
_atom_site_type_symbol
_atom_site_fract_x
_atom_site_fract_y
_atom_site_fract_z
_atom_site_U_iso_or_equiv
_atom_site_adp_type
_atom_site_occupancy
_atom_site_symmetry_multiplicity
_atom_site_calc_flag
_atom_site_refinement_flags
_atom_site_disorder_assembly
_atom_site_disorder_group
Mg1 Mg 0.0000 0.0000 0.0000 0.0247(3) Uani 1 6 d S . .
Mg2 Mg 0.6667 0.3333 0.2500 0.0255(3) Uani 1 6 d S . .
O1 O 0.20625(15) 0.20687(15) 0.08171(9) 0.0459(3) Uani 1 1 d . . .
O2 O 0.46871(15) 0.33222(15) 0.15949(9) 0.0478(4) Uani 1 1 d . . .
C1 C 0.3253(2) 0.2046(2) 0.13021(12) 0.0473(4) Uani 1 1 d . . .
H1 H 0.3044 0.0898 0.1474 0.057 Uiso 1 1 calc R . .
C2 C 0.3333 0.6667 0.1092(4) 0.0932(15) Uani 1 3 d S . .
C3 C 0.3227(10) 0.7303(8) 0.2161(4) 0.0587(14) Uani 0.33 1 d P . .
N1 N 0.1948(7) 0.5450(7) 0.0669(4) 0.0550(11) Uani 0.33 1 d P . .
H1A H 0.1915 0.4391 0.0729 0.082 Uiso 0.33 1 calc PR . .
H1B H 0.1988 0.5726 0.0038 0.082 Uiso 0.33 1 calc PR . .
H1C H 0.0958 0.5369 0.0940 0.082 Uiso 0.33 1 calc PR . .

loop_
_atom_site_aniso_label
_atom_site_aniso_U_11
_atom_site_aniso_U_22
_atom_site_aniso_U_33
_atom_site_aniso_U_23
_atom_site_aniso_U_13
_atom_site_aniso_U_12
Mg1 0.0234(3) 0.0234(3) 0.0272(5) 0.000 0.000 0.01170(17)
Mg2 0.0244(3) 0.0244(3) 0.0278(5) 0.000 0.000 0.01218(17)
O1 0.0397(6) 0.0434(6) 0.0541(7) -0.0136(5) -0.0202(5) 0.0203(5)
O2 0.0368(6) 0.0444(6) 0.0600(7) -0.0092(5) -0.0198(5) 0.0187(5)
C1 0.0465(9) 0.0365(8) 0.0577(9) -0.0095(7) -0.0216(8) 0.0199(7)
C2 0.108(2) 0.108(2) 0.063(2) 0.000 0.000 0.0541(12)
C3 0.067(4) 0.047(4) 0.061(3) -0.008(2) -0.001(3) 0.028(3)
N1 0.063(3) 0.053(3) 0.057(2) -0.010(2) -0.005(2) 0.034(2)

_geom_special_details            
; 
 All esds (except the esd in the dihedral angle between two l.s. planes) 
 are estimated using the full covariance matrix.  The cell esds are taken 
 into account individually in the estimation of esds in distances, angles 
 and torsion angles; correlations between esds in cell parameters are only 
 used when they are defined by crystal symmetry.  An approximate (isotropic) 
 treatment of cell esds is used for estimating esds involving l.s. planes. 
;

loop_
_geom_bond_atom_site_label_1
_geom_bond_atom_site_label_2
_geom_bond_distance
_geom_bond_site_symmetry_2
_geom_bond_publ_flag
Mg1 O1 2.0807(10) . ?
Mg1 O1 2.0807(10) 7 ?
Mg1 O1 2.0807(10) 9 ?
Mg1 O1 2.0807(10) 2 ?
Mg1 O1 2.0807(10) 8 ?
Mg1 O1 2.0807(10) 3 ?
Mg2 O2 2.0845(11) 5_655 ?
Mg2 O2 2.0845(11) 2_655 ?
Mg2 O2 2.0845(11) 3_665 ?
Mg2 O2 2.0845(11) 6 ?
Mg2 O2 2.0845(11) 4_665 ?
Mg2 O2 2.0845(11) . ?
O1 C1 1.2180(18) . ?
O2 C1 1.2247(18) . ?
C1 H1 0.9300 . ?
C2 N1 1.254(5) 3_565 ?
C2 N1 1.254(5) . ?
C2 N1 1.254(5) 2_665 ?
C2 C3 1.577(7) . ?
C2 C3 1.577(7) 2_665 ?
C2 C3 1.577(7) 3_565 ?
C3 C3 1.024(10) 3_565 ?
C3 C3 1.024(10) 2_665 ?
C3 C3 1.030(11) 4_665 ?
C3 C3 1.174(12) 5 ?
C3 C3 1.494(11) 6_565 ?
N1 H1A 0.8900 . ?
N1 H1B 0.8900 . ?
N1 H1C 0.8900 . ?

loop_
_geom_angle_atom_site_label_1
_geom_angle_atom_site_label_2
_geom_angle_atom_site_label_3
_geom_angle
_geom_angle_site_symmetry_1
_geom_angle_site_symmetry_3
_geom_angle_publ_flag
O1 Mg1 O1 180.00(8) . 7 ?
O1 Mg1 O1 86.12(5) . 9 ?
O1 Mg1 O1 93.88(5) 7 9 ?
O1 Mg1 O1 93.88(5) . 2 ?
O1 Mg1 O1 86.12(5) 7 2 ?
O1 Mg1 O1 86.12(5) 9 2 ?
O1 Mg1 O1 86.12(5) . 8 ?
O1 Mg1 O1 93.88(5) 7 8 ?
O1 Mg1 O1 93.88(5) 9 8 ?
O1 Mg1 O1 180.00(6) 2 8 ?
O1 Mg1 O1 93.88(5) . 3 ?
O1 Mg1 O1 86.12(5) 7 3 ?
O1 Mg1 O1 180.00(8) 9 3 ?
O1 Mg1 O1 93.88(5) 2 3 ?
O1 Mg1 O1 86.12(5) 8 3 ?
O2 Mg2 O2 91.32(7) 5_655 2_655 ?
O2 Mg2 O2 91.95(7) 5_655 3_665 ?
O2 Mg2 O2 88.37(5) 2_655 3_665 ?
O2 Mg2 O2 88.37(5) 5_655 6 ?
O2 Mg2 O2 91.95(7) 2_655 6 ?
O2 Mg2 O2 179.55(6) 3_665 6 ?
O2 Mg2 O2 88.37(5) 5_655 4_665 ?
O2 Mg2 O2 179.55(6) 2_655 4_665 ?
O2 Mg2 O2 91.32(7) 3_665 4_665 ?
O2 Mg2 O2 88.37(5) 6 4_665 ?
O2 Mg2 O2 179.55(6) 5_655 . ?
O2 Mg2 O2 88.37(5) 2_655 . ?
O2 Mg2 O2 88.37(5) 3_665 . ?
O2 Mg2 O2 91.32(7) 6 . ?
O2 Mg2 O2 91.95(7) 4_665 . ?
C1 O1 Mg1 129.38(11) . . ?
C1 O2 Mg2 129.90(11) . . ?
O1 C1 O2 129.09(16) . . ?
O1 C1 H1 115.5 . . ?
O2 C1 H1 115.5 . . ?
N1 C2 N1 100.4(4) 3_565 . ?
N1 C2 N1 100.4(4) 3_565 2_665 ?
N1 C2 N1 100.4(4) . 2_665 ?
N1 C2 C3 96.0(3) 3_565 . ?
N1 C2 C3 121.3(4) . . ?
N1 C2 C3 131.2(4) 2_665 . ?
N1 C2 C3 131.2(4) 3_565 2_665 ?
N1 C2 C3 96.0(3) . 2_665 ?
N1 C2 C3 121.3(4) 2_665 2_665 ?
C3 C2 C3 37.9(4) . 2_665 ?
N1 C2 C3 121.3(4) 3_565 3_565 ?
N1 C2 C3 131.2(4) . 3_565 ?
N1 C2 C3 96.0(3) 2_665 3_565 ?
C3 C2 C3 37.9(4) . 3_565 ?
C3 C2 C3 37.9(4) 2_665 3_565 ?
C3 C3 C3 60.000(3) 3_565 2_665 ?
C3 C3 C3 93.3(2) 3_565 4_665 ?
C3 C3 C3 69.7(8) 2_665 4_665 ?
C3 C3 C3 55.4(7) 3_565 5 ?
C3 C3 C3 85.3(5) 2_665 5 ?
C3 C3 C3 54.9(6) 4_665 5 ?
C3 C3 C3 51.6(5) 3_565 6_565 ?
C3 C3 C3 43.5(4) 2_665 6_565 ?
C3 C3 C3 43.2(3) 4_665 6_565 ?
C3 C3 C3 43.1(3) 5 6_565 ?
C3 C3 C2 71.05(18) 3_565 . ?
C3 C3 C2 71.05(18) 2_665 . ?
C3 C3 C2 140.5(8) 4_665 . ?
C3 C3 C2 126.2(8) 5 . ?
C3 C3 C2 106.4(5) 6_565 . ?
C2 N1 H1A 109.5 . . ?
C2 N1 H1B 109.5 . . ?
H1A N1 H1B 109.5 . . ?
C2 N1 H1C 109.5 . . ?
H1A N1 H1C 109.5 . . ?
H1B N1 H1C 109.5 . . ?

loop_
_geom_hbond_atom_site_label_D
_geom_hbond_atom_site_label_H
_geom_hbond_atom_site_label_A
_geom_hbond_distance_DH
_geom_hbond_distance_HA
_geom_hbond_distance_DA
_geom_hbond_angle_DHA
_geom_hbond_site_symmetry_A
N1 H1A O1 0.89 2.04 2.930(5) 175.0 .
N1 H1C O2 0.89 2.15 3.035(5) 177.3 3_565
N1 H1B O2 0.89 2.36 3.151(5) 147.8 9

_diffrn_measured_fraction_theta_max 0.994
_diffrn_reflns_theta_full        28.27
_diffrn_measured_fraction_theta_full 0.994
_refine_diff_density_max         0.202
_refine_diff_density_min         -0.261
_refine_diff_density_rms         0.044