####################################################################### 
# 
# This file contains crystal structure data downloaded from the 
# Cambridge Structural Database (CSD) hosted by the Cambridge 
# Crystallographic Data Centre (CCDC).
# 
# Full information about CCDC data access policies and citation 
# guidelines are available at http://www.ccdc.cam.ac.uk/access/V1 
# 
# Audit and citation data items may have been added by the CCDC. 
# Please retain this information to preserve the provenance of 
# this file and to allow appropriate attribution of the data. 
# 
#######################################################################

data_3-100K
_audit_block_doi                 10.5517/ccdc.csd.cc1154ly
_database_code_depnum_ccdc_archive 'CCDC 958259'
loop_
_citation_id
_citation_doi
_citation_year
1 10.1002/chem.201303425 2014
2 10.1002/chem.201600689 2016
_audit_update_record             
;
2013-08-30 deposited with the CCDC.	2022-07-19 downloaded from the CCDC.
;

_audit_creation_method           SHELXL-97
_chemical_name_systematic        
; 
 ? 
;
_chemical_name_common            ?
_chemical_melting_point          ?
_chemical_formula_moiety         ?
_chemical_formula_sum            'C10 H20 Mg2 N2 O12'
_chemical_formula_weight         408.90

loop_
_atom_type_symbol
_atom_type_description
_atom_type_scat_dispersion_real
_atom_type_scat_dispersion_imag
_atom_type_scat_source
C C 0.0033 0.0016 'International Tables Vol C Tables 4.2.6.8 and 6.1.1.4'
H H 0.0000 0.0000 'International Tables Vol C Tables 4.2.6.8 and 6.1.1.4'
N N 0.0061 0.0033 'International Tables Vol C Tables 4.2.6.8 and 6.1.1.4'
O O 0.0106 0.0060 'International Tables Vol C Tables 4.2.6.8 and 6.1.1.4'
Mg Mg 0.0486 0.0363 'International Tables Vol C Tables 4.2.6.8 and 6.1.1.4'

_symmetry_cell_setting           Monoclinic
_symmetry_space_group_name_H-M   'C c'

loop_
_symmetry_equiv_pos_as_xyz
'x, y, z'
'x, -y, z+1/2'
'x+1/2, y+1/2, z'
'x+1/2, -y+1/2, z+1/2'

_cell_length_a                   8.3961(3)
_cell_length_b                   14.8705(5)
_cell_length_c                   13.5139(4)
_cell_angle_alpha                90.00
_cell_angle_beta                 90.006(3)
_cell_angle_gamma                90.00
_cell_volume                     1687.27(10)
_cell_formula_units_Z            4
_cell_measurement_temperature    100.0
_cell_measurement_reflns_used    10277
_cell_measurement_theta_min      2.73
_cell_measurement_theta_max      30.17

_exptl_crystal_description       block
_exptl_crystal_colour            colorless
_exptl_crystal_size_max          0.29
_exptl_crystal_size_mid          0.25
_exptl_crystal_size_min          0.20
_exptl_crystal_density_meas      ?
_exptl_crystal_density_diffrn    1.610
_exptl_crystal_density_method    'not measured'
_exptl_crystal_F_000             856
_exptl_absorpt_coefficient_mu    0.210
_exptl_absorpt_correction_type   multi-scan
_exptl_absorpt_correction_T_min  0.85409
_exptl_absorpt_correction_T_max  1.00000
_exptl_absorpt_process_details   
;
CrysAlisPro, Agilent Technologies,
Empirical absorption correction using spherical harmonics,
implemented in SCALE3 ABSPACK scaling algorithm (Blessing 1995, 1997).
;

_exptl_special_details           
; 
 ? 
;

_diffrn_ambient_temperature      100.0
_diffrn_radiation_wavelength     0.71073
_diffrn_radiation_type           MoK\a
_diffrn_radiation_source         'SuperNova (Mo) X-ray Source'
_diffrn_radiation_monochromator  mirror
_diffrn_measurement_device_type  'SuperNova, Dual, Cu at zero, AtlasCCD'
_diffrn_measurement_method       '\w scans'
_diffrn_detector_area_resol_mean 10.3914
_diffrn_standards_number         ?
_diffrn_standards_interval_count ?
_diffrn_standards_interval_time  ?
_diffrn_standards_decay_%        0
_diffrn_reflns_number            13994
_diffrn_reflns_av_R_equivalents  0.0182
_diffrn_reflns_av_sigmaI/netI    0.0168
_diffrn_reflns_limit_h_min       -11
_diffrn_reflns_limit_h_max       11
_diffrn_reflns_limit_k_min       -19
_diffrn_reflns_limit_k_max       19
_diffrn_reflns_limit_l_min       -18
_diffrn_reflns_limit_l_max       17
_diffrn_reflns_theta_min         4.08
_diffrn_reflns_theta_max         28.27
_reflns_number_total             4131
_reflns_number_gt                4030
_reflns_threshold_expression     >2sigma(I)

_computing_data_collection       'CrysAlisPro (Agilent Technologies, 2012)'
_computing_cell_refinement       'CrysAlisPro (Agilent Technologies, 2012)'
_computing_data_reduction        'CrysAlisPro (Agilent Technologies, 2012)'
_computing_structure_solution    'SHELXS-97 (Sheldrick, 1990)'
_computing_structure_refinement  'SHELXL-97 (Sheldrick, 1997)'
_computing_molecular_graphics    'Bruker SHELXTL V5.1 (Sheldrick, 1998)'
_computing_publication_material  'SHELXL-97 (Sheldrick, 1997)'

_refine_special_details          
; 
 Refinement of F^2^ against ALL reflections.  The weighted R-factor wR and 
 goodness of fit S are based on F^2^, conventional R-factors R are based 
 on F, with F set to zero for negative F^2^. The threshold expression of 
 F^2^ > 2sigma(F^2^) is used only for calculating R-factors(gt) etc. and is 
 not relevant to the choice of reflections for refinement.  R-factors based 
 on F^2^ are statistically about twice as large as those based on F, and R- 
 factors based on ALL data will be even larger. 
;

_refine_ls_structure_factor_coef Fsqd
_refine_ls_matrix_type           full
_refine_ls_weighting_scheme      calc
_refine_ls_weighting_details     
'calc w=1/[\s^2^(Fo^2^)+(0.0239P)^2^+0.5416P] where P=(Fo^2^+2Fc^2^)/3'
_atom_sites_solution_primary     direct
_atom_sites_solution_secondary   difmap
_atom_sites_solution_hydrogens   difmap
_refine_ls_hydrogen_treatment    constr.
_refine_ls_extinction_method     SHELXL
_refine_ls_extinction_coef       0.0015(3)
_refine_ls_extinction_expression Fc^*^=kFc[1+0.001xFc^2^\l^3^/sin(2\q)]^-1/4^
_refine_ls_abs_structure_details 'Flack H D (1983), Acta Cryst. A39, 876-881'
_refine_ls_abs_structure_Flack   0.00
_refine_ls_number_reflns         4131
_refine_ls_number_parameters     238
_refine_ls_number_restraints     2
_refine_ls_R_factor_all          0.0197
_refine_ls_R_factor_gt           0.0190
_refine_ls_wR_factor_ref         0.0496
_refine_ls_wR_factor_gt          0.0492
_refine_ls_goodness_of_fit_ref   1.073
_refine_ls_restrained_S_all      1.073
_refine_ls_shift/su_max          0.000
_refine_ls_shift/su_mean         0.000

loop_
_atom_site_label
_atom_site_type_symbol
_atom_site_fract_x
_atom_site_fract_y
_atom_site_fract_z
_atom_site_U_iso_or_equiv
_atom_site_adp_type
_atom_site_occupancy
_atom_site_symmetry_multiplicity
_atom_site_calc_flag
_atom_site_refinement_flags
_atom_site_disorder_assembly
_atom_site_disorder_group
Mg1 Mg 0.11721(5) 0.33662(2) 0.31960(3) 0.00620(7) Uani 1 1 d . . .
Mg2 Mg 0.11645(6) -0.00162(3) 0.56747(3) 0.00667(7) Uani 1 1 d . . .
O1 O 0.03044(10) 0.24093(6) 0.42015(6) 0.01135(17) Uani 1 1 d . . .
O2 O 0.01671(10) 0.10525(6) 0.48820(6) 0.01159(18) Uani 1 1 d . . .
O3 O 0.20399(10) 0.23810(6) 0.22502(6) 0.01056(17) Uani 1 1 d . . .
O4 O 0.21258(10) 0.10639(5) 0.14809(6) 0.01192(18) Uani 1 1 d . . .
O5 O 0.33594(11) 0.33476(5) 0.38577(6) 0.01149(18) Uani 1 1 d . . .
O6 O 0.52736(10) 0.40704(6) 0.46776(6) 0.01373(18) Uani 1 1 d . . .
O7 O 0.20754(10) 0.43026(6) 0.21818(6) 0.01037(17) Uani 1 1 d . . .
O8 O 0.40030(10) 0.50368(5) 0.14018(6) 0.01063(18) Uani 1 1 d . . .
O9 O -0.09668(10) 0.33557(5) 0.24182(7) 0.01117(18) Uani 1 1 d . . .
O10 O -0.29913(10) 0.40041(5) 0.16257(6) 0.01078(17) Uani 1 1 d . . .
O11 O 0.03241(10) 0.43776(6) 0.41432(6) 0.01020(17) Uani 1 1 d . . .
O12 O -0.16681(10) 0.50541(5) 0.49345(6) 0.01049(17) Uani 1 1 d . . .
C1 C 0.08369(14) 0.16316(8) 0.43494(9) 0.0095(2) Uani 1 1 d . . .
H1 H 0.1810 0.1471 0.4038 0.011 Uiso 1 1 calc R . .
C2 C 0.14018(15) 0.16696(7) 0.19318(9) 0.0103(2) Uani 1 1 d . . .
H2 H 0.0294 0.1590 0.2043 0.012 Uiso 1 1 calc R . .
C3 C 0.38722(14) 0.38150(8) 0.45572(8) 0.0110(2) Uani 1 1 d . . .
H3 H 0.3121 0.3993 0.5045 0.013 Uiso 1 1 calc R . .
C4 C 0.34597(14) 0.46233(8) 0.21294(8) 0.0115(2) Uani 1 1 d . . .
H4 H 0.4140 0.4544 0.2685 0.014 Uiso 1 1 calc R . .
C5 C -0.16484(14) 0.40145(7) 0.20396(8) 0.0105(2) Uani 1 1 d . . .
H5 H -0.1107 0.4575 0.2065 0.013 Uiso 1 1 calc R . .
C6 C -0.10963(14) 0.44114(8) 0.44542(8) 0.0095(2) Uani 1 1 d . . .
H6 H -0.1773 0.3916 0.4314 0.011 Uiso 1 1 calc R . .
N1 N 0.51644(12) 0.24043(6) 0.14955(7) 0.01135(18) Uani 1 1 d . . .
H1A H 0.4178 0.2452 0.1770 0.017 Uiso 1 1 calc R . .
H1B H 0.5078 0.2404 0.0824 0.017 Uiso 1 1 calc R . .
H1C H 0.5773 0.2879 0.1690 0.017 Uiso 1 1 calc R . .
N2 N 0.67464(11) 0.09672(6) 0.50525(7) 0.01099(18) Uani 1 1 d . . .
H2A H 0.6286 0.0506 0.4716 0.016 Uiso 1 1 calc R . .
H2B H 0.6558 0.0901 0.5711 0.016 Uiso 1 1 calc R . .
H2C H 0.7815 0.0965 0.4941 0.016 Uiso 1 1 calc R . .
C7 C 0.59285(15) 0.15456(8) 0.18295(9) 0.0133(2) Uani 1 1 d . . .
H7A H 0.7093 0.1583 0.1721 0.016 Uiso 1 1 calc R . .
H7B H 0.5514 0.1040 0.1428 0.016 Uiso 1 1 calc R . .
C8 C 0.56008(14) 0.13618(7) 0.29211(8) 0.0120(2) Uani 1 1 d . . .
H8A H 0.4438 0.1392 0.3037 0.014 Uiso 1 1 calc R . .
H8B H 0.5955 0.0744 0.3081 0.014 Uiso 1 1 calc R . .
C9 C 0.64282(14) 0.20180(7) 0.36199(8) 0.0118(2) Uani 1 1 d . . .
H9A H 0.7594 0.1976 0.3520 0.014 Uiso 1 1 calc R . .
H9B H 0.6097 0.2638 0.3450 0.014 Uiso 1 1 calc R . .
C10 C 0.60547(15) 0.18426(8) 0.47049(8) 0.0132(2) Uani 1 1 d . . .
H10A H 0.6491 0.2339 0.5111 0.016 Uiso 1 1 calc R . .
H10B H 0.4885 0.1832 0.4798 0.016 Uiso 1 1 calc R . .

loop_
_atom_site_aniso_label
_atom_site_aniso_U_11
_atom_site_aniso_U_22
_atom_site_aniso_U_33
_atom_site_aniso_U_23
_atom_site_aniso_U_13
_atom_site_aniso_U_12
Mg1 0.00582(14) 0.00628(14) 0.00652(14) -0.00009(15) 0.00003(10) -0.00024(15)
Mg2 0.00617(14) 0.00656(14) 0.00730(14) -0.00009(11) -0.00007(10) 0.00023(10)
O1 0.0115(4) 0.0100(4) 0.0126(4) 0.0025(3) 0.0007(3) 0.0002(3)
O2 0.0101(4) 0.0122(4) 0.0124(4) 0.0044(3) -0.0010(3) -0.0002(3)
O3 0.0108(4) 0.0093(4) 0.0115(4) -0.0025(3) -0.0001(3) -0.0012(3)
O4 0.0122(4) 0.0096(4) 0.0140(4) -0.0034(3) 0.0005(3) -0.0002(3)
O5 0.0106(4) 0.0111(4) 0.0127(4) -0.0019(3) -0.0034(3) -0.0002(3)
O6 0.0098(4) 0.0162(4) 0.0152(4) -0.0069(3) -0.0005(3) -0.0020(3)
O7 0.0094(4) 0.0105(4) 0.0112(4) 0.0014(3) 0.0013(3) -0.0010(3)
O8 0.0107(4) 0.0105(4) 0.0107(4) 0.0012(3) 0.0030(3) -0.0007(3)
O9 0.0099(4) 0.0112(4) 0.0125(4) 0.0022(3) -0.0015(3) -0.0002(3)
O10 0.0082(4) 0.0113(4) 0.0127(4) 0.0022(3) -0.0018(3) -0.0015(3)
O11 0.0083(4) 0.0110(4) 0.0112(4) 0.0002(3) 0.0015(3) 0.0009(3)
O12 0.0087(4) 0.0105(4) 0.0123(4) -0.0010(3) 0.0014(3) 0.0009(3)
C1 0.0087(6) 0.0117(5) 0.0081(5) 0.0002(4) -0.0005(4) -0.0002(4)
C2 0.0092(6) 0.0125(5) 0.0093(5) -0.0004(4) -0.0002(4) -0.0011(4)
C3 0.0116(5) 0.0118(5) 0.0097(5) 0.0001(4) 0.0007(4) 0.0008(4)
C4 0.0114(5) 0.0131(5) 0.0098(5) 0.0007(4) -0.0014(4) -0.0008(4)
C5 0.0103(5) 0.0102(5) 0.0109(5) 0.0011(4) 0.0004(4) -0.0015(4)
C6 0.0093(5) 0.0094(5) 0.0097(5) 0.0005(4) 0.0000(4) -0.0009(4)
N1 0.0108(4) 0.0119(4) 0.0113(4) 0.0030(3) -0.0007(3) -0.0018(3)
N2 0.0096(4) 0.0129(4) 0.0104(4) 0.0013(3) -0.0012(3) -0.0001(3)
C7 0.0149(6) 0.0113(5) 0.0137(5) 0.0012(4) -0.0010(4) 0.0037(4)
C8 0.0147(5) 0.0103(5) 0.0111(5) 0.0021(4) -0.0013(4) -0.0006(4)
C9 0.0114(5) 0.0117(5) 0.0122(5) 0.0005(4) -0.0004(4) -0.0004(4)
C10 0.0163(6) 0.0123(5) 0.0109(5) 0.0006(4) -0.0014(4) 0.0037(4)

_geom_special_details            
; 
 All esds (except the esd in the dihedral angle between two l.s. planes) 
 are estimated using the full covariance matrix.  The cell esds are taken 
 into account individually in the estimation of esds in distances, angles 
 and torsion angles; correlations between esds in cell parameters are only 
 used when they are defined by crystal symmetry.  An approximate (isotropic) 
 treatment of cell esds is used for estimating esds involving l.s. planes. 
;

loop_
_geom_bond_atom_site_label_1
_geom_bond_atom_site_label_2
_geom_bond_distance
_geom_bond_site_symmetry_2
_geom_bond_publ_flag
Mg1 O5 2.0427(10) . ?
Mg1 O3 2.0763(9) . ?
Mg1 O9 2.0808(10) . ?
Mg1 O7 2.0960(9) . ?
Mg1 O1 2.0981(9) . ?
Mg1 O11 2.0995(9) . ?
Mg2 O6 2.0542(9) 3_445 ?
Mg2 O8 2.0640(9) 4_455 ?
Mg2 O4 2.0652(9) 2 ?
Mg2 O12 2.0794(9) 3_545 ?
Mg2 O2 2.0916(9) . ?
Mg2 O10 2.1021(9) 4 ?
O1 C1 1.2559(14) . ?
O2 C1 1.2554(15) . ?
O3 C2 1.2615(14) . ?
O4 C2 1.2458(15) . ?
O4 Mg2 2.0652(9) 2_554 ?
O5 C3 1.2499(14) . ?
O6 C3 1.2471(15) . ?
O6 Mg2 2.0542(9) 3 ?
O7 C4 1.2583(15) . ?
O8 C4 1.2463(14) . ?
O8 Mg2 2.0640(9) 4_554 ?
O9 C5 1.2446(14) . ?
O10 C5 1.2587(15) . ?
O10 Mg2 2.1021(9) 4_454 ?
O11 C6 1.2654(14) . ?
O12 C6 1.2511(14) . ?
O12 Mg2 2.0794(9) 3_455 ?
C1 H1 0.9500 . ?
C2 H2 0.9500 . ?
C3 H3 0.9500 . ?
C4 H4 0.9500 . ?
C5 H5 0.9500 . ?
C6 H6 0.9500 . ?
N1 C7 1.4987(14) . ?
N1 H1A 0.9100 . ?
N1 H1B 0.9100 . ?
N1 H1C 0.9100 . ?
N2 C10 1.5008(15) . ?
N2 H2A 0.9100 . ?
N2 H2B 0.9100 . ?
N2 H2C 0.9100 . ?
C7 C8 1.5253(15) . ?
C7 H7A 0.9900 . ?
C7 H7B 0.9900 . ?
C8 C9 1.5253(14) . ?
C8 H8A 0.9900 . ?
C8 H8B 0.9900 . ?
C9 C10 1.5220(16) . ?
C9 H9A 0.9900 . ?
C9 H9B 0.9900 . ?
C10 H10A 0.9900 . ?
C10 H10B 0.9900 . ?

loop_
_geom_angle_atom_site_label_1
_geom_angle_atom_site_label_2
_geom_angle_atom_site_label_3
_geom_angle
_geom_angle_site_symmetry_1
_geom_angle_site_symmetry_3
_geom_angle_publ_flag
O5 Mg1 O3 86.81(4) . . ?
O5 Mg1 O9 175.46(5) . . ?
O3 Mg1 O9 89.24(4) . . ?
O5 Mg1 O7 88.27(4) . . ?
O3 Mg1 O7 86.52(4) . . ?
O9 Mg1 O7 89.25(4) . . ?
O5 Mg1 O1 91.12(4) . . ?
O3 Mg1 O1 92.41(3) . . ?
O9 Mg1 O1 91.28(4) . . ?
O7 Mg1 O1 178.79(4) . . ?
O5 Mg1 O11 92.74(4) . . ?
O3 Mg1 O11 179.03(4) . . ?
O9 Mg1 O11 91.18(4) . . ?
O7 Mg1 O11 92.61(3) . . ?
O1 Mg1 O11 88.46(4) . . ?
O6 Mg2 O8 88.99(4) 3_445 4_455 ?
O6 Mg2 O4 89.40(4) 3_445 2 ?
O8 Mg2 O4 94.66(4) 4_455 2 ?
O6 Mg2 O12 92.08(4) 3_445 3_545 ?
O8 Mg2 O12 177.94(4) 4_455 3_545 ?
O4 Mg2 O12 87.12(4) 2 3_545 ?
O6 Mg2 O2 91.18(4) 3_445 . ?
O8 Mg2 O2 84.44(4) 4_455 . ?
O4 Mg2 O2 178.92(5) 2 . ?
O12 Mg2 O2 93.77(4) 3_545 . ?
O6 Mg2 O10 175.67(5) 3_445 4 ?
O8 Mg2 O10 90.92(4) 4_455 4 ?
O4 Mg2 O10 94.93(4) 2 4 ?
O12 Mg2 O10 87.88(4) 3_545 4 ?
O2 Mg2 O10 84.49(3) . 4 ?
C1 O1 Mg1 127.15(8) . . ?
C1 O2 Mg2 129.46(8) . . ?
C2 O3 Mg1 130.75(8) . . ?
C2 O4 Mg2 127.79(9) . 2_554 ?
C3 O5 Mg1 129.28(8) . . ?
C3 O6 Mg2 129.08(8) . 3 ?
C4 O7 Mg1 128.52(8) . . ?
C4 O8 Mg2 133.64(8) . 4_554 ?
C5 O9 Mg1 126.77(8) . . ?
C5 O10 Mg2 124.39(7) . 4_454 ?
C6 O11 Mg1 123.41(8) . . ?
C6 O12 Mg2 123.17(8) . 3_455 ?
O2 C1 O1 124.29(11) . . ?
O2 C1 H1 117.9 . . ?
O1 C1 H1 117.9 . . ?
O4 C2 O3 124.47(12) . . ?
O4 C2 H2 117.8 . . ?
O3 C2 H2 117.8 . . ?
O6 C3 O5 126.37(11) . . ?
O6 C3 H3 116.8 . . ?
O5 C3 H3 116.8 . . ?
O8 C4 O7 124.72(11) . . ?
O8 C4 H4 117.6 . . ?
O7 C4 H4 117.6 . . ?
O9 C5 O10 125.79(11) . . ?
O9 C5 H5 117.1 . . ?
O10 C5 H5 117.1 . . ?
O12 C6 O11 124.35(11) . . ?
O12 C6 H6 117.8 . . ?
O11 C6 H6 117.8 . . ?
C7 N1 H1A 109.5 . . ?
C7 N1 H1B 109.5 . . ?
H1A N1 H1B 109.5 . . ?
C7 N1 H1C 109.5 . . ?
H1A N1 H1C 109.5 . . ?
H1B N1 H1C 109.5 . . ?
C10 N2 H2A 109.5 . . ?
C10 N2 H2B 109.5 . . ?
H2A N2 H2B 109.5 . . ?
C10 N2 H2C 109.5 . . ?
H2A N2 H2C 109.5 . . ?
H2B N2 H2C 109.5 . . ?
N1 C7 C8 111.51(9) . . ?
N1 C7 H7A 109.3 . . ?
C8 C7 H7A 109.3 . . ?
N1 C7 H7B 109.3 . . ?
C8 C7 H7B 109.3 . . ?
H7A C7 H7B 108.0 . . ?
C9 C8 C7 113.70(9) . . ?
C9 C8 H8A 108.8 . . ?
C7 C8 H8A 108.8 . . ?
C9 C8 H8B 108.8 . . ?
C7 C8 H8B 108.8 . . ?
H8A C8 H8B 107.7 . . ?
C10 C9 C8 113.13(9) . . ?
C10 C9 H9A 109.0 . . ?
C8 C9 H9A 109.0 . . ?
C10 C9 H9B 109.0 . . ?
C8 C9 H9B 109.0 . . ?
H9A C9 H9B 107.8 . . ?
N2 C10 C9 111.74(9) . . ?
N2 C10 H10A 109.3 . . ?
C9 C10 H10A 109.3 . . ?
N2 C10 H10B 109.3 . . ?
C9 C10 H10B 109.3 . . ?
H10A C10 H10B 107.9 . . ?

loop_
_geom_hbond_atom_site_label_D
_geom_hbond_atom_site_label_H
_geom_hbond_atom_site_label_A
_geom_hbond_distance_DH
_geom_hbond_distance_HA
_geom_hbond_distance_DA
_geom_hbond_angle_DHA
_geom_hbond_site_symmetry_A
N1 H1A O3 0.91 1.91 2.8150(13) 171.3 .
N1 H1B O1 0.91 2.22 3.1147(12) 168.0 4_554
N1 H1B O2 0.91 2.63 3.1654(13) 118.7 4_554
N1 H1C O10 0.91 1.97 2.8439(13) 160.3 1_655
N2 H2A O11 0.91 2.02 2.9195(13) 171.9 3_545
N2 H2A O12 0.91 2.59 3.1762(13) 123.1 3_545
N2 H2B O7 0.91 2.06 2.9185(13) 157.7 4
N2 H2C O2 0.91 1.98 2.8840(13) 171.7 1_655

_diffrn_measured_fraction_theta_max 0.997
_diffrn_reflns_theta_full        28.27
_diffrn_measured_fraction_theta_full 0.997
_refine_diff_density_max         0.223
_refine_diff_density_min         -0.166
_refine_diff_density_rms         0.037