####################################################################### 
# 
# This file contains crystal structure data downloaded from the 
# Cambridge Structural Database (CSD) hosted by the Cambridge 
# Crystallographic Data Centre (CCDC).
# 
# Full information about CCDC data access policies and citation 
# guidelines are available at http://www.ccdc.cam.ac.uk/access/V1 
# 
# Audit and citation data items may have been added by the CCDC. 
# Please retain this information to preserve the provenance of 
# this file and to allow appropriate attribution of the data. 
# 
#######################################################################

data_3-340K
_audit_block_doi                 10.5517/ccdc.csd.cc1154q2
_database_code_depnum_ccdc_archive 'CCDC 958263'
loop_
_citation_id
_citation_doi
_citation_year
1 10.1002/chem.201303425 2014
_audit_update_record             
;
2013-08-30 deposited with the CCDC.	2022-07-19 downloaded from the CCDC.
;

_audit_creation_method           SHELXL-97
_chemical_name_systematic        
; 
 ? 
;
_chemical_name_common            ?
_chemical_melting_point          ?
_chemical_formula_moiety         ?
_chemical_formula_sum            'C10 H20 Mg2 N2 O12'
_chemical_formula_weight         408.90

loop_
_atom_type_symbol
_atom_type_description
_atom_type_scat_dispersion_real
_atom_type_scat_dispersion_imag
_atom_type_scat_source
C C 0.0033 0.0016 'International Tables Vol C Tables 4.2.6.8 and 6.1.1.4'
H H 0.0000 0.0000 'International Tables Vol C Tables 4.2.6.8 and 6.1.1.4'
N N 0.0061 0.0033 'International Tables Vol C Tables 4.2.6.8 and 6.1.1.4'
O O 0.0106 0.0060 'International Tables Vol C Tables 4.2.6.8 and 6.1.1.4'
Mg Mg 0.0486 0.0363 'International Tables Vol C Tables 4.2.6.8 and 6.1.1.4'

_symmetry_cell_setting           Monoclinic
_symmetry_space_group_name_H-M   'C c'

loop_
_symmetry_equiv_pos_as_xyz
'x, y, z'
'x, -y, z+1/2'
'x+1/2, y+1/2, z'
'x+1/2, -y+1/2, z+1/2'

_cell_length_a                   8.4270(3)
_cell_length_b                   14.9120(5)
_cell_length_c                   13.5840(5)
_cell_angle_alpha                90.00
_cell_angle_beta                 90.160(3)
_cell_angle_gamma                90.00
_cell_volume                     1707.01(10)
_cell_formula_units_Z            4
_cell_measurement_temperature    340.0
_cell_measurement_reflns_used    8478
_cell_measurement_theta_min      2.77
_cell_measurement_theta_max      30.20

_exptl_crystal_description       block
_exptl_crystal_colour            colorless
_exptl_crystal_size_max          0.29
_exptl_crystal_size_mid          0.25
_exptl_crystal_size_min          0.20
_exptl_crystal_density_meas      ?
_exptl_crystal_density_diffrn    1.591
_exptl_crystal_density_method    'not measured'
_exptl_crystal_F_000             856
_exptl_absorpt_coefficient_mu    0.208
_exptl_absorpt_correction_T_max  1.00000
_exptl_absorpt_correction_T_min  0.79160
_exptl_absorpt_correction_type   multi-scan
_exptl_absorpt_process_details   
;
CrysAlisPro, Agilent Technologies,
Empirical absorption correction using spherical harmonics,
implemented in SCALE3 ABSPACK scaling algorithm (Blessing 1995, 1997).
;

_exptl_special_details           
; 
 ? 
;

_diffrn_ambient_temperature      340.0
_diffrn_radiation_wavelength     0.71073
_diffrn_radiation_type           MoK\a
_diffrn_radiation_source         'SuperNova (Mo) X-ray Source'
_diffrn_radiation_monochromator  mirror
_diffrn_measurement_device_type  'SuperNova, Dual, Cu at zero, AtlasCCD'
_diffrn_measurement_method       '\w scans'
_diffrn_detector_area_resol_mean 10.3914
_diffrn_standards_number         ?
_diffrn_standards_interval_count ?
_diffrn_standards_interval_time  ?
_diffrn_standards_decay_%        0
_diffrn_reflns_number            14158
_diffrn_reflns_av_R_equivalents  0.0202
_diffrn_reflns_av_sigmaI/netI    0.0185
_diffrn_reflns_limit_h_min       -11
_diffrn_reflns_limit_h_max       11
_diffrn_reflns_limit_k_min       -19
_diffrn_reflns_limit_k_max       19
_diffrn_reflns_limit_l_min       -18
_diffrn_reflns_limit_l_max       17
_diffrn_reflns_theta_min         4.06
_diffrn_reflns_theta_max         28.28
_reflns_number_total             4202
_reflns_number_gt                3942
_reflns_threshold_expression     >2sigma(I)

_computing_data_collection       'CrysAlisPro (Agilent Technologies, 2012)'
_computing_cell_refinement       'CrysAlisPro (Agilent Technologies, 2012)'
_computing_data_reduction        'CrysAlisPro (Agilent Technologies, 2012)'
_computing_structure_solution    'SHELXS-97 (Sheldrick, 1990)'
_computing_structure_refinement  'SHELXL-97 (Sheldrick, 1997)'
_computing_molecular_graphics    'Bruker SHELXTL V5.1 (Sheldrick, 1998)'
_computing_publication_material  'SHELXL-97 (Sheldrick, 1997)'

_refine_special_details          
; 
 Refinement of F^2^ against ALL reflections.  The weighted R-factor wR and 
 goodness of fit S are based on F^2^, conventional R-factors R are based 
 on F, with F set to zero for negative F^2^. The threshold expression of 
 F^2^ > 2sigma(F^2^) is used only for calculating R-factors(gt) etc. and is 
 not relevant to the choice of reflections for refinement.  R-factors based 
 on F^2^ are statistically about twice as large as those based on F, and R- 
 factors based on ALL data will be even larger. 
;

_refine_ls_structure_factor_coef Fsqd
_refine_ls_matrix_type           full
_refine_ls_weighting_scheme      calc
_refine_ls_weighting_details     
'calc w=1/[\s^2^(Fo^2^)+(0.0288P)^2^+0.5840P] where P=(Fo^2^+2Fc^2^)/3'
_atom_sites_solution_primary     direct
_atom_sites_solution_secondary   difmap
_atom_sites_solution_hydrogens   geom
_refine_ls_hydrogen_treatment    constr.
_refine_ls_extinction_method     SHELXL
_refine_ls_extinction_coef       0.0014(4)
_refine_ls_extinction_expression Fc^*^=kFc[1+0.001xFc^2^\l^3^/sin(2\q)]^-1/4^
_refine_ls_abs_structure_details 'Flack H D (1983), Acta Cryst. A39, 876-881'
_refine_ls_abs_structure_Flack   0.00
_refine_ls_number_reflns         4202
_refine_ls_number_parameters     245
_refine_ls_number_restraints     18
_refine_ls_R_factor_all          0.0280
_refine_ls_R_factor_gt           0.0253
_refine_ls_wR_factor_ref         0.0633
_refine_ls_wR_factor_gt          0.0617
_refine_ls_goodness_of_fit_ref   1.059
_refine_ls_restrained_S_all      1.079
_refine_ls_shift/su_max          0.001
_refine_ls_shift/su_mean         0.000

loop_
_atom_site_label
_atom_site_type_symbol
_atom_site_fract_x
_atom_site_fract_y
_atom_site_fract_z
_atom_site_U_iso_or_equiv
_atom_site_adp_type
_atom_site_occupancy
_atom_site_symmetry_multiplicity
_atom_site_calc_flag
_atom_site_refinement_flags
_atom_site_disorder_assembly
_atom_site_disorder_group
Mg1 Mg 0.11776(7) 0.33616(2) 0.31951(5) 0.01622(9) Uani 1 1 d . . .
Mg2 Mg 0.11652(8) -0.00202(3) 0.56754(5) 0.01669(9) Uani 1 1 d . . .
O1 O 0.03020(15) 0.23846(8) 0.41676(9) 0.0313(3) Uani 1 1 d . . .
O2 O 0.01813(15) 0.10567(8) 0.48818(9) 0.0319(3) Uani 1 1 d . . .
O3 O 0.20602(15) 0.23813(8) 0.22467(9) 0.0286(3) Uani 1 1 d . . .
O4 O 0.21146(17) 0.10781(8) 0.14753(10) 0.0336(3) Uani 1 1 d . . .
O5 O 0.33258(16) 0.33530(8) 0.38969(10) 0.0330(3) Uani 1 1 d . . .
O6 O 0.52376(16) 0.40738(10) 0.46907(10) 0.0410(3) Uani 1 1 d . . .
O7 O 0.21083(14) 0.43064(8) 0.21967(9) 0.0285(3) Uani 1 1 d . . .
O8 O 0.40231(16) 0.50173(8) 0.14159(9) 0.0284(3) Uani 1 1 d . . .
O9 O -0.09381(15) 0.33733(8) 0.23972(10) 0.0297(3) Uani 1 1 d . . .
O10 O -0.29427(15) 0.40169(8) 0.16110(9) 0.0289(3) Uani 1 1 d . . .
O11 O 0.02929(14) 0.43563(8) 0.41420(9) 0.0275(3) Uani 1 1 d . . .
O12 O -0.16810(16) 0.50215(7) 0.49323(9) 0.0276(3) Uani 1 1 d . . .
C1 C 0.0818(2) 0.16218(11) 0.43456(13) 0.0257(4) Uani 1 1 d . . .
H1 H 0.1770 0.1460 0.4049 0.031 Uiso 1 1 calc R . .
C2 C 0.1419(2) 0.16853(11) 0.19213(13) 0.0257(4) Uani 1 1 d . . .
H2 H 0.0334 0.1619 0.2022 0.031 Uiso 1 1 calc R . .
C3 C 0.3892(2) 0.38197(12) 0.45510(12) 0.0316(4) Uani 1 1 d . . .
H3 H 0.3165 0.4011 0.5020 0.038 Uiso 1 1 calc R . .
C4 C 0.3463(2) 0.46278(12) 0.21365(12) 0.0295(4) Uani 1 1 d . . .
H4 H 0.4117 0.4569 0.2686 0.035 Uiso 1 1 calc R . .
C5 C -0.1617(2) 0.40213(11) 0.20233(12) 0.0279(4) Uani 1 1 d . . .
H5 H -0.1088 0.4568 0.2051 0.033 Uiso 1 1 calc R . .
C6 C -0.11093(19) 0.43937(11) 0.44549(12) 0.0256(3) Uani 1 1 d . . .
H6 H -0.1770 0.3910 0.4316 0.031 Uiso 1 1 calc R . .
N1 N 0.52095(18) 0.24078(10) 0.15098(11) 0.0373(3) Uani 1 1 d D A .
H1A H 0.4234 0.2438 0.1756 0.056 Uiso 1 1 calc R . .
H1B H 0.5158 0.2409 0.0855 0.056 Uiso 1 1 calc R . .
H1C H 0.5770 0.2879 0.1713 0.056 Uiso 1 1 calc R . .
N2 N 0.67379(17) 0.09500(9) 0.50505(10) 0.0339(3) Uani 1 1 d D A .
H2A H 0.6286 0.0491 0.4739 0.051 Uiso 1 1 calc R . .
H2B H 0.6581 0.0895 0.5695 0.051 Uiso 1 1 calc R . .
H2C H 0.7775 0.0953 0.4928 0.051 Uiso 1 1 calc R . .
C7 C 0.5986(3) 0.15723(13) 0.18504(13) 0.0441(5) Uani 1 1 d D . .
H7A H 0.7126 0.1629 0.1776 0.053 Uiso 0.802(5) 1 calc PR A 1
H7B H 0.5634 0.1075 0.1444 0.053 Uiso 0.802(5) 1 calc PR A 1
H7C H 0.6830 0.1414 0.1399 0.053 Uiso 0.198(5) 1 calc PR A 2
H7D H 0.5217 0.1088 0.1850 0.053 Uiso 0.198(5) 1 calc PR A 2
C81 C 0.5597(3) 0.13751(13) 0.29274(13) 0.0335(5) Uani 0.802(5) 1 d PD A 1
H81A H 0.4460 0.1427 0.3024 0.040 Uiso 0.802(5) 1 calc PR A 1
H81B H 0.5901 0.0763 0.3080 0.040 Uiso 0.802(5) 1 calc PR A 1
C91 C 0.6440(3) 0.20065(13) 0.36248(14) 0.0339(5) Uani 0.802(5) 1 d PD A 1
H91A H 0.6147 0.2619 0.3469 0.041 Uiso 0.802(5) 1 calc PR A 1
H91B H 0.7578 0.1948 0.3538 0.041 Uiso 0.802(5) 1 calc PR A 1
C82 C 0.6682(7) 0.1684(5) 0.2899(2) 0.0335(5) Uani 0.20 1 d PD A 2
H82A H 0.7451 0.1215 0.3028 0.040 Uiso 0.198(5) 1 calc PR A 2
H82B H 0.7216 0.2258 0.2954 0.040 Uiso 0.198(5) 1 calc PR A 2
C92 C 0.5341(7) 0.1632(5) 0.3644(2) 0.0339(5) Uani 0.20 1 d PD A 2
H92A H 0.4851 0.1044 0.3618 0.041 Uiso 0.198(5) 1 calc PR A 2
H92B H 0.4538 0.2076 0.3488 0.041 Uiso 0.198(5) 1 calc PR A 2
C10 C 0.6019(3) 0.18077(14) 0.46973(13) 0.0443(5) Uani 1 1 d D . .
H10A H 0.6390 0.2297 0.5109 0.053 Uiso 0.802(5) 1 calc PR A 1
H10B H 0.4875 0.1773 0.4761 0.053 Uiso 0.802(5) 1 calc PR A 1
H10C H 0.6816 0.2276 0.4677 0.053 Uiso 0.198(5) 1 calc PR A 2
H10D H 0.5177 0.1996 0.5137 0.053 Uiso 0.198(5) 1 calc PR A 2

loop_
_atom_site_aniso_label
_atom_site_aniso_U_11
_atom_site_aniso_U_22
_atom_site_aniso_U_33
_atom_site_aniso_U_23
_atom_site_aniso_U_13
_atom_site_aniso_U_12
Mg1 0.01453(17) 0.01584(17) 0.01830(17) -0.0002(2) 0.00000(13) -0.0006(2)
Mg2 0.01516(17) 0.01601(17) 0.01888(18) -0.00055(14) -0.00003(13) 0.00017(13)
O1 0.0312(7) 0.0250(6) 0.0377(7) 0.0109(5) 0.0042(5) 0.0017(5)
O2 0.0272(7) 0.0320(6) 0.0366(7) 0.0154(5) 0.0008(5) 0.0020(5)
O3 0.0279(7) 0.0243(6) 0.0336(6) -0.0106(5) 0.0003(5) -0.0025(5)
O4 0.0320(7) 0.0256(6) 0.0432(8) -0.0153(5) 0.0015(6) -0.0023(5)
O5 0.0263(7) 0.0313(7) 0.0415(8) -0.0088(5) -0.0133(6) 0.0015(5)
O6 0.0270(7) 0.0513(8) 0.0445(8) -0.0246(7) 0.0002(6) -0.0104(6)
O7 0.0237(6) 0.0298(6) 0.0319(6) 0.0063(5) 0.0040(5) -0.0049(5)
O8 0.0234(7) 0.0313(6) 0.0304(6) 0.0049(5) 0.0084(5) -0.0030(5)
O9 0.0229(7) 0.0289(6) 0.0374(7) 0.0079(5) -0.0092(5) -0.0001(5)
O10 0.0199(6) 0.0302(6) 0.0367(6) 0.0117(5) -0.0078(5) -0.0036(5)
O11 0.0217(6) 0.0279(6) 0.0327(6) -0.0048(5) 0.0065(5) 0.0025(5)
O12 0.0237(7) 0.0265(6) 0.0327(6) -0.0054(5) 0.0083(5) 0.0002(4)
C1 0.0240(9) 0.0284(8) 0.0246(8) 0.0047(6) 0.0018(6) 0.0030(6)
C2 0.0210(8) 0.0273(8) 0.0290(8) -0.0068(6) 0.0000(6) -0.0022(6)
C3 0.0257(8) 0.0395(9) 0.0296(8) -0.0114(7) 0.0010(6) 0.0007(7)
C4 0.0260(8) 0.0367(9) 0.0258(7) 0.0050(7) -0.0015(6) -0.0057(7)
C5 0.0245(8) 0.0248(7) 0.0342(8) 0.0054(6) -0.0067(6) -0.0047(6)
C6 0.0232(7) 0.0231(7) 0.0305(8) -0.0029(6) 0.0052(6) -0.0029(6)
N1 0.0330(7) 0.0385(8) 0.0404(8) 0.0139(6) -0.0026(6) -0.0077(6)
N2 0.0307(7) 0.0396(8) 0.0313(7) 0.0057(6) -0.0072(5) -0.0011(6)
C7 0.0581(13) 0.0400(11) 0.0341(10) 0.0011(8) 0.0014(9) 0.0105(9)
C81 0.0375(11) 0.0268(10) 0.0360(11) 0.0070(8) -0.0031(9) -0.0025(8)
C91 0.0340(11) 0.0297(10) 0.0379(11) 0.0022(8) -0.0033(8) -0.0027(8)
C82 0.0375(11) 0.0268(10) 0.0360(11) 0.0070(8) -0.0031(9) -0.0025(8)
C92 0.0340(11) 0.0297(10) 0.0379(11) 0.0022(8) -0.0033(8) -0.0027(8)
C10 0.0581(13) 0.0433(10) 0.0313(9) -0.0007(8) -0.0026(8) 0.0160(9)

_geom_special_details            
; 
 All esds (except the esd in the dihedral angle between two l.s. planes) 
 are estimated using the full covariance matrix.  The cell esds are taken 
 into account individually in the estimation of esds in distances, angles 
 and torsion angles; correlations between esds in cell parameters are only 
 used when they are defined by crystal symmetry.  An approximate (isotropic) 
 treatment of cell esds is used for estimating esds involving l.s. planes. 
;

loop_
_geom_bond_atom_site_label_1
_geom_bond_atom_site_label_2
_geom_bond_distance
_geom_bond_site_symmetry_2
_geom_bond_publ_flag
Mg1 O5 2.0436(14) . ?
Mg1 O9 2.0840(13) . ?
Mg1 O3 2.0870(12) . ?
Mg1 O11 2.1013(13) . ?
Mg1 O1 2.1018(12) . ?
Mg1 O7 2.1084(13) . ?
Mg2 O6 2.0542(13) 3_445 ?
Mg2 O8 2.0689(13) 4_455 ?
Mg2 O4 2.0747(13) 2 ?
Mg2 O12 2.0802(13) 3_545 ?
Mg2 O10 2.1008(12) 4 ?
Mg2 O2 2.1031(12) . ?
O1 C1 1.241(2) . ?
O2 C1 1.237(2) . ?
O3 C2 1.250(2) . ?
O4 C2 1.238(2) . ?
O4 Mg2 2.0747(13) 2_554 ?
O5 C3 1.224(2) . ?
O6 C3 1.210(2) . ?
O6 Mg2 2.0542(13) 3 ?
O7 C4 1.241(2) . ?
O8 C4 1.233(2) . ?
O8 Mg2 2.0689(13) 4_554 ?
O9 C5 1.232(2) . ?
O10 C5 1.249(2) . ?
O10 Mg2 2.1008(12) 4_454 ?
O11 C6 1.258(2) . ?
O12 C6 1.2373(19) . ?
O12 Mg2 2.0802(13) 3_455 ?
C1 H1 0.9300 . ?
C2 H2 0.9300 . ?
C3 H3 0.9300 . ?
C4 H4 0.9300 . ?
C5 H5 0.9300 . ?
C6 H6 0.9300 . ?
N1 C7 1.481(2) . ?
N1 H1A 0.8900 . ?
N1 H1B 0.8900 . ?
N1 H1C 0.8900 . ?
N2 C10 1.494(2) . ?
N2 H2A 0.8900 . ?
N2 H2B 0.8900 . ?
N2 H2C 0.8900 . ?
C7 C81 1.529(2) . ?
C7 C82 1.548(4) . ?
C7 H7A 0.9700 . ?
C7 H7B 0.9700 . ?
C7 H7C 0.9700 . ?
C7 H7D 0.9700 . ?
C81 C91 1.512(2) . ?
C81 H81A 0.9700 . ?
C81 H81B 0.9700 . ?
C91 C10 1.529(2) . ?
C91 H91A 0.9700 . ?
C91 H91B 0.9700 . ?
C82 C92 1.521(5) . ?
C82 H82A 0.9700 . ?
C82 H82B 0.9700 . ?
C92 C10 1.561(4) . ?
C92 H92A 0.9700 . ?
C92 H92B 0.9700 . ?
C10 H10A 0.9700 . ?
C10 H10B 0.9700 . ?
C10 H10C 0.9700 . ?
C10 H10D 0.9700 . ?

loop_
_geom_angle_atom_site_label_1
_geom_angle_atom_site_label_2
_geom_angle_atom_site_label_3
_geom_angle
_geom_angle_site_symmetry_1
_geom_angle_site_symmetry_3
_geom_angle_publ_flag
O5 Mg1 O9 176.46(8) . . ?
O5 Mg1 O3 88.10(5) . . ?
O9 Mg1 O3 89.46(5) . . ?
O5 Mg1 O11 91.96(5) . . ?
O9 Mg1 O11 90.46(5) . . ?
O3 Mg1 O11 179.56(6) . . ?
O5 Mg1 O1 90.83(6) . . ?
O9 Mg1 O1 91.79(5) . . ?
O3 Mg1 O1 91.65(4) . . ?
O11 Mg1 O1 88.79(6) . . ?
O5 Mg1 O7 88.49(6) . . ?
O9 Mg1 O7 88.80(5) . . ?
O3 Mg1 O7 86.39(6) . . ?
O11 Mg1 O7 93.17(4) . . ?
O1 Mg1 O7 177.95(6) . . ?
O6 Mg2 O8 89.26(6) 3_445 4_455 ?
O6 Mg2 O4 89.22(6) 3_445 2 ?
O8 Mg2 O4 94.74(5) 4_455 2 ?
O6 Mg2 O12 91.98(6) 3_445 3_545 ?
O8 Mg2 O12 178.17(6) 4_455 3_545 ?
O4 Mg2 O12 86.62(6) 2 3_545 ?
O6 Mg2 O10 175.71(7) 3_445 4 ?
O8 Mg2 O10 90.89(5) 4_455 4 ?
O4 Mg2 O10 95.04(6) 2 4 ?
O12 Mg2 O10 87.77(5) 3_545 4 ?
O6 Mg2 O2 91.12(6) 3_445 . ?
O8 Mg2 O2 84.51(5) 4_455 . ?
O4 Mg2 O2 179.17(7) 2 . ?
O12 Mg2 O2 94.11(5) 3_545 . ?
O10 Mg2 O2 84.62(5) 4 . ?
C1 O1 Mg1 129.36(12) . . ?
C1 O2 Mg2 130.60(12) . . ?
C2 O3 Mg1 130.19(12) . . ?
C2 O4 Mg2 129.05(13) . 2_554 ?
C3 O5 Mg1 132.68(13) . . ?
C3 O6 Mg2 131.51(13) . 3 ?
C4 O7 Mg1 130.11(11) . . ?
C4 O8 Mg2 136.31(13) . 4_554 ?
C5 O9 Mg1 128.06(11) . . ?
C5 O10 Mg2 125.87(10) . 4_454 ?
C6 O11 Mg1 124.98(11) . . ?
C6 O12 Mg2 124.98(11) . 3_455 ?
O2 C1 O1 125.91(17) . . ?
O2 C1 H1 117.0 . . ?
O1 C1 H1 117.0 . . ?
O4 C2 O3 125.12(17) . . ?
O4 C2 H2 117.4 . . ?
O3 C2 H2 117.4 . . ?
O6 C3 O5 130.92(17) . . ?
O6 C3 H3 114.5 . . ?
O5 C3 H3 114.5 . . ?
O8 C4 O7 126.02(16) . . ?
O8 C4 H4 117.0 . . ?
O7 C4 H4 117.0 . . ?
O9 C5 O10 126.49(15) . . ?
O9 C5 H5 116.8 . . ?
O10 C5 H5 116.8 . . ?
O12 C6 O11 125.31(15) . . ?
O12 C6 H6 117.3 . . ?
O11 C6 H6 117.3 . . ?
C7 N1 H1A 109.5 . . ?
C7 N1 H1B 109.5 . . ?
H1A N1 H1B 109.5 . . ?
C7 N1 H1C 109.5 . . ?
H1A N1 H1C 109.5 . . ?
H1B N1 H1C 109.5 . . ?
C10 N2 H2A 109.5 . . ?
C10 N2 H2B 109.5 . . ?
H2A N2 H2B 109.5 . . ?
C10 N2 H2C 109.5 . . ?
H2A N2 H2C 109.5 . . ?
H2B N2 H2C 109.5 . . ?
N1 C7 C81 111.42(16) . . ?
N1 C7 C82 111.3(3) . . ?
C81 C7 C82 38.9(2) . . ?
N1 C7 H7A 109.3 . . ?
C81 C7 H7A 109.3 . . ?
C82 C7 H7A 73.3 . . ?
N1 C7 H7B 109.3 . . ?
C81 C7 H7B 109.3 . . ?
C82 C7 H7B 136.1 . . ?
H7A C7 H7B 108.0 . . ?
N1 C7 H7C 109.4 . . ?
C81 C7 H7C 135.9 . . ?
C82 C7 H7C 109.4 . . ?
H7A C7 H7C 39.4 . . ?
H7B C7 H7C 71.2 . . ?
N1 C7 H7D 109.4 . . ?
C81 C7 H7D 73.3 . . ?
C82 C7 H7D 109.4 . . ?
H7A C7 H7D 136.6 . . ?
H7B C7 H7D 39.5 . . ?
H7C C7 H7D 108.0 . . ?
C91 C81 C7 112.22(16) . . ?
C91 C81 H81A 109.2 . . ?
C7 C81 H81A 109.2 . . ?
C91 C81 H81B 109.2 . . ?
C7 C81 H81B 109.2 . . ?
H81A C81 H81B 107.9 . . ?
C81 C91 C10 111.48(16) . . ?
C81 C91 H91A 109.3 . . ?
C10 C91 H91A 109.3 . . ?
C81 C91 H91B 109.3 . . ?
C10 C91 H91B 109.3 . . ?
H91A C91 H91B 108.0 . . ?
C92 C82 C7 109.0(3) . . ?
C92 C82 H82A 109.9 . . ?
C7 C82 H82A 109.9 . . ?
C92 C82 H82B 109.9 . . ?
C7 C82 H82B 109.9 . . ?
H82A C82 H82B 108.3 . . ?
C82 C92 C10 109.3(3) . . ?
C82 C92 H92A 109.8 . . ?
C10 C92 H92A 109.8 . . ?
C82 C92 H92B 109.8 . . ?
C10 C92 H92B 109.8 . . ?
H92A C92 H92B 108.3 . . ?
N2 C10 C91 112.14(16) . . ?
N2 C10 C92 107.3(3) . . ?
C91 C10 C92 41.0(2) . . ?
N2 C10 H10A 109.2 . . ?
C91 C10 H10A 109.2 . . ?
C92 C10 H10A 140.4 . . ?
N2 C10 H10B 109.2 . . ?
C91 C10 H10B 109.2 . . ?
C92 C10 H10B 73.2 . . ?
H10A C10 H10B 107.9 . . ?
N2 C10 H10C 110.2 . . ?
C91 C10 H10C 70.7 . . ?
C92 C10 H10C 110.2 . . ?
H10A C10 H10C 41.7 . . ?
H10B C10 H10C 136.9 . . ?
N2 C10 H10D 110.2 . . ?
C91 C10 H10D 134.6 . . ?
C92 C10 H10D 110.2 . . ?
H10A C10 H10D 70.3 . . ?
H10B C10 H10D 39.8 . . ?
H10C C10 H10D 108.5 . . ?

loop_
_geom_hbond_atom_site_label_D
_geom_hbond_atom_site_label_H
_geom_hbond_atom_site_label_A
_geom_hbond_distance_DH
_geom_hbond_distance_HA
_geom_hbond_distance_DA
_geom_hbond_angle_DHA
_geom_hbond_site_symmetry_A
N1 H1A O3 0.89 1.95 2.839(2) 174.2 .
N1 H1B O1 0.89 2.32 3.198(2) 170.5 4_554
N1 H1B O2 0.89 2.64 3.1833(19) 120.0 4_554
N1 H1C O10 0.89 2.02 2.8635(19) 157.9 1_655
N2 H2A O11 0.89 2.05 2.9402(19) 174.3 3_545
N2 H2A O12 0.89 2.61 3.200(2) 124.5 3_545
N2 H2B O7 0.89 2.11 2.9560(18) 159.1 4
N2 H2C O2 0.89 2.04 2.9158(19) 170.1 1_655

_diffrn_measured_fraction_theta_max 0.996
_diffrn_reflns_theta_full        28.28
_diffrn_measured_fraction_theta_full 0.996
_refine_diff_density_max         0.233
_refine_diff_density_min         -0.183
_refine_diff_density_rms         0.036