####################################################################### 
# 
# This file contains crystal structure data downloaded from the 
# Cambridge Structural Database (CSD) hosted by the Cambridge 
# Crystallographic Data Centre (CCDC).
# 
# Full information about CCDC data access policies and citation 
# guidelines are available at http://www.ccdc.cam.ac.uk/access/V1 
# 
# Audit and citation data items may have been added by the CCDC. 
# Please retain this information to preserve the provenance of 
# this file and to allow appropriate attribution of the data. 
# 
#######################################################################

data_06dec28a-Fe
_audit_block_doi                 10.5517/ccrtl59
_database_code_depnum_ccdc_archive 'CCDC 709781'
loop_
_citation_id
_citation_doi
_citation_year
1 10.1002/chem.200901605 2009
_audit_update_record             
;
2008-11-17 deposited with the CCDC.	2022-07-18 downloaded from the CCDC.
;

_audit_creation_method           SHELXL-97
_chemical_name_systematic        
;
?
;
_chemical_name_common            ?
_chemical_melting_point          ?
_chemical_formula_moiety         ?
_chemical_formula_sum            'C4 H9 Fe N3 O6'
_chemical_formula_weight         250.99

loop_
_atom_type_symbol
_atom_type_description
_atom_type_scat_dispersion_real
_atom_type_scat_dispersion_imag
_atom_type_scat_source
C C 0.0033 0.0016 'International Tables Vol C Tables 4.2.6.8 and 6.1.1.4'
H H 0.0000 0.0000 'International Tables Vol C Tables 4.2.6.8 and 6.1.1.4'
N N 0.0061 0.0033 'International Tables Vol C Tables 4.2.6.8 and 6.1.1.4'
O O 0.0106 0.0060 'International Tables Vol C Tables 4.2.6.8 and 6.1.1.4'
Fe Fe 0.3463 0.8444 'International Tables Vol C Tables 4.2.6.8 and 6.1.1.4'

_symmetry_cell_setting           Orthorhombic
_symmetry_space_group_name_H-M   'P nna'

loop_
_symmetry_equiv_pos_as_xyz
'x, y, z'
'-x+1/2, -y, z'
'-x+1/2, y+1/2, -z+1/2'
'x, -y+1/2, -z+1/2'
'-x, -y, -z'
'x-1/2, y, -z'
'x-1/2, -y-1/2, z-1/2'
'-x, y-1/2, z-1/2'

_cell_length_a                   8.4156(3)
_cell_length_b                   11.8504(5)
_cell_length_c                   8.9474(3)
_cell_angle_alpha                90.00
_cell_angle_beta                 90.00
_cell_angle_gamma                90.00
_cell_volume                     892.31(6)
_cell_formula_units_Z            4
_cell_measurement_temperature    293(2)
_cell_measurement_reflns_used    4611
_cell_measurement_theta_min      3.395
_cell_measurement_theta_max      27.485

_exptl_crystal_description       block
_exptl_crystal_colour            'pale green'
_exptl_crystal_size_max          0.19
_exptl_crystal_size_mid          0.18
_exptl_crystal_size_min          0.16
_exptl_crystal_density_meas      ?
_exptl_crystal_density_diffrn    1.868
_exptl_crystal_density_method    'not measured'
_exptl_crystal_F_000             512
_exptl_absorpt_coefficient_mu    1.701
_exptl_absorpt_correction_type   multi-scan
_exptl_absorpt_correction_T_min  0.726
_exptl_absorpt_correction_T_max  0.767
_exptl_absorpt_process_details   
;
multi-scan from symmetry-related measurements
Sortav (Blessing 1995, 1997)
;

_exptl_special_details           
;
?
;

_diffrn_ambient_temperature      293(2)
_diffrn_radiation_wavelength     0.71073
_diffrn_radiation_type           MoK\a
_diffrn_radiation_source         'fine-focus sealed tube'
_diffrn_radiation_monochromator  graphite
_diffrn_measurement_device_type  'NONIUS KappaCCD'
_diffrn_measurement_method       CCD
_diffrn_detector_area_resol_mean 9
_diffrn_standards_number         ?
_diffrn_standards_interval_count ?
_diffrn_standards_interval_time  ?
_diffrn_standards_decay_%        ?
_diffrn_reflns_number            14650
_diffrn_reflns_av_R_equivalents  0.0674
_diffrn_reflns_av_sigmaI/netI    0.0367
_diffrn_reflns_limit_h_min       -10
_diffrn_reflns_limit_h_max       10
_diffrn_reflns_limit_k_min       -15
_diffrn_reflns_limit_k_max       15
_diffrn_reflns_limit_l_min       -11
_diffrn_reflns_limit_l_max       11
_diffrn_reflns_theta_min         3.44
_diffrn_reflns_theta_max         27.45
_reflns_number_total             1023
_reflns_number_gt                635
_reflns_threshold_expression     >2sigma(I)

_computing_data_collection       'KappaCCD (Nonius B. V., 1998)'
_computing_cell_refinement       'HKL Scalepack (Otwinowski & Minor, 1997)'
_computing_data_reduction        
'HKL Denzo (Otwinowski & Minor, 1997) & maXus (Mackay et al., 1998)'
_computing_structure_solution    'SHELXS-97 (Sheldrick, 1997)'
_computing_structure_refinement  'SHELXL-97 (Sheldrick, 1997)'
_computing_molecular_graphics    'Bruker SHELXTL V5.1 (Sheldrick, 1998)'
_computing_publication_material  'SHELXL-97 (Sheldrick, 1997)'

_refine_special_details          
;
Refinement of F^2^ against ALL reflections. The weighted R-factor wR and
goodness of fit S are based on F^2^, conventional R-factors R are based
on F, with F set to zero for negative F^2^. The threshold expression of
F^2^ > 2sigma(F^2^) is used only for calculating R-factors(gt) etc. and is
not relevant to the choice of reflections for refinement. R-factors based
on F^2^ are statistically about twice as large as those based on F, and R-
factors based on ALL data will be even larger.
;

_refine_ls_structure_factor_coef Fsqd
_refine_ls_matrix_type           full
_refine_ls_weighting_scheme      calc
_refine_ls_weighting_details     
'calc w=1/[\s^2^(Fo^2^)+(0.0340P)^2^+0.0000P] where P=(Fo^2^+2Fc^2^)/3'
_atom_sites_solution_primary     direct
_atom_sites_solution_secondary   difmap
_atom_sites_solution_hydrogens   geom
_refine_ls_hydrogen_treatment    mixed
_refine_ls_extinction_method     SHELXL
_refine_ls_extinction_coef       0.0112(13)
_refine_ls_extinction_expression Fc^*^=kFc[1+0.001xFc^2^\l^3^/sin(2\q)]^-1/4^
_refine_ls_number_reflns         1023
_refine_ls_number_parameters     67
_refine_ls_number_restraints     0
_refine_ls_R_factor_all          0.0529
_refine_ls_R_factor_gt           0.0242
_refine_ls_wR_factor_ref         0.0601
_refine_ls_wR_factor_gt          0.0549
_refine_ls_goodness_of_fit_ref   0.900
_refine_ls_restrained_S_all      0.900
_refine_ls_shift/su_max          0.000
_refine_ls_shift/su_mean         0.000

loop_
_atom_site_label
_atom_site_type_symbol
_atom_site_fract_x
_atom_site_fract_y
_atom_site_fract_z
_atom_site_U_iso_or_equiv
_atom_site_adp_type
_atom_site_occupancy
_atom_site_symmetry_multiplicity
_atom_site_calc_flag
_atom_site_refinement_flags
_atom_site_disorder_assembly
_atom_site_disorder_group
Fe1 Fe 0.25243(5) 0.2500 0.2500 0.01923(15) Uani 1 2 d S . .
O1 O 0.25631(16) 0.40623(10) 0.36867(13) 0.0295(3) Uani 1 1 d . . .
O2 O 0.40664(16) 0.18276(11) 0.41311(13) 0.0342(4) Uani 1 1 d . . .
O3 O 0.56200(15) 0.19299(11) 0.61162(14) 0.0302(3) Uani 1 1 d . . .
C1 C 0.2500 0.5000 0.3065(3) 0.0326(7) Uani 1 2 d S . .
H1 H 0.2500 0.5000 0.2026 0.039 Uiso 1 2 calc SR . .
C2 C 0.5217(2) 0.22121(17) 0.4831(2) 0.0306(5) Uani 1 1 d . . .
H2 H 0.5831 0.2757 0.4355 0.037 Uiso 1 1 calc R . .
C3 C 0.2500 0.5000 0.7594(3) 0.0302(6) Uani 1 2 d S . .
N1 N 0.3382(2) 0.42727(15) 0.68657(17) 0.0439(6) Uani 1 1 d . . .
H11 H 0.3384 0.4271 0.5905 0.053 Uiso 1 1 calc R . .
H12 H 0.3958 0.3797 0.7349 0.053 Uiso 1 1 calc R . .
N2 N 0.2500 0.5000 0.9068(2) 0.0378(6) Uani 1 2 d S . .
H21 H 0.1923 0.5476 0.9549 0.045 Uiso 0.50 1 calc PR . .
H22 H 0.3077 0.4524 0.9549 0.045 Uiso 0.50 1 calc PR . .

loop_
_atom_site_aniso_label
_atom_site_aniso_U_11
_atom_site_aniso_U_22
_atom_site_aniso_U_33
_atom_site_aniso_U_23
_atom_site_aniso_U_13
_atom_site_aniso_U_12
Fe1 0.0209(2) 0.0189(2) 0.0178(2) 0.00008(14) 0.000 0.000
O1 0.0452(9) 0.0199(6) 0.0235(6) 0.0004(5) -0.0013(6) -0.0004(7)
O2 0.0344(8) 0.0323(8) 0.0360(8) 0.0043(6) -0.0153(7) -0.0026(7)
O3 0.0301(8) 0.0352(8) 0.0254(7) 0.0008(6) -0.0055(6) -0.0047(6)
C1 0.0505(19) 0.0267(15) 0.0205(12) 0.000 0.000 0.0012(16)
C2 0.0325(13) 0.0295(11) 0.0298(12) 0.0027(9) -0.0027(10) -0.0034(9)
C3 0.0303(15) 0.0331(14) 0.0271(14) 0.000 0.000 0.0023(15)
N1 0.0517(14) 0.0531(13) 0.0270(9) -0.0036(10) -0.0028(9) 0.0261(11)
N2 0.0511(17) 0.0356(13) 0.0268(12) 0.000 0.000 0.0123(13)

_geom_special_details            
;
All esds (except the esd in the dihedral angle between two l.s. planes)
are estimated using the full covariance matrix. The cell esds are taken
into account individually in the estimation of esds in distances, angles
and torsion angles; correlations between esds in cell parameters are only
used when they are defined by crystal symmetry. An approximate (isotropic)
treatment of cell esds is used for estimating esds involving l.s. planes.
;

loop_
_geom_bond_atom_site_label_1
_geom_bond_atom_site_label_2
_geom_bond_distance
_geom_bond_site_symmetry_2
_geom_bond_publ_flag
Fe1 O2 2.1093(13) 4 ?
Fe1 O2 2.1093(13) . ?
Fe1 O1 2.1345(12) . ?
Fe1 O1 2.1345(12) 4 ?
Fe1 O3 2.1349(13) 7_565 ?
Fe1 O3 2.1349(13) 6_556 ?
O1 C1 1.2437(18) . ?
O2 C2 1.240(2) . ?
O3 C2 1.245(2) . ?
O3 Fe1 2.1349(13) 6_656 ?
C1 O1 1.2437(18) 2_565 ?
C1 H1 0.9300 . ?
C2 H2 0.9300 . ?
C3 N1 1.3109(19) 2_565 ?
C3 N1 1.3109(19) . ?
C3 N2 1.319(3) . ?
N1 H11 0.8600 . ?
N1 H12 0.8600 . ?
N2 H21 0.8600 . ?
N2 H22 0.8600 . ?

loop_
_geom_angle_atom_site_label_1
_geom_angle_atom_site_label_2
_geom_angle_atom_site_label_3
_geom_angle
_geom_angle_site_symmetry_1
_geom_angle_site_symmetry_3
_geom_angle_publ_flag
O2 Fe1 O2 104.06(7) 4 . ?
O2 Fe1 O1 90.41(5) 4 . ?
O2 Fe1 O1 88.51(5) . . ?
O2 Fe1 O1 88.51(5) 4 4 ?
O2 Fe1 O1 90.41(5) . 4 ?
O1 Fe1 O1 178.25(7) . 4 ?
O2 Fe1 O3 86.62(5) 4 7_565 ?
O2 Fe1 O3 169.32(5) . 7_565 ?
O1 Fe1 O3 91.46(5) . 7_565 ?
O1 Fe1 O3 89.85(5) 4 7_565 ?
O2 Fe1 O3 169.32(5) 4 6_556 ?
O2 Fe1 O3 86.62(5) . 6_556 ?
O1 Fe1 O3 89.85(5) . 6_556 ?
O1 Fe1 O3 91.46(5) 4 6_556 ?
O3 Fe1 O3 82.70(7) 7_565 6_556 ?
C1 O1 Fe1 123.50(14) . . ?
C2 O2 Fe1 133.72(13) . . ?
C2 O3 Fe1 130.93(12) . 6_656 ?
O1 C1 O1 126.9(3) 2_565 . ?
O1 C1 H1 116.6 2_565 . ?
O1 C1 H1 116.6 . . ?
O2 C2 O3 125.48(18) . . ?
O2 C2 H2 117.3 . . ?
O3 C2 H2 117.3 . . ?
N1 C3 N1 120.4(2) 2_565 . ?
N1 C3 N2 119.82(12) 2_565 . ?
N1 C3 N2 119.82(12) . . ?
C3 N1 H11 120.0 . . ?
C3 N1 H12 120.0 . . ?
H11 N1 H12 120.0 . . ?
C3 N2 H21 120.0 . . ?
C3 N2 H22 120.0 . . ?
H21 N2 H22 120.0 . . ?

loop_
_geom_hbond_atom_site_label_D
_geom_hbond_atom_site_label_H
_geom_hbond_atom_site_label_A
_geom_hbond_distance_DH
_geom_hbond_distance_HA
_geom_hbond_distance_DA
_geom_hbond_angle_DHA
_geom_hbond_site_symmetry_A
N1 H11 O1 0.86 2.12 2.937(2) 159.6 .
N1 H12 O3 0.86 2.14 2.973(2) 162.7 4_556
N2 H21 O2 0.86 2.16 3.0040(18) 168.3 3_556

_diffrn_measured_fraction_theta_max 0.998
_diffrn_reflns_theta_full        27.45
_diffrn_measured_fraction_theta_full 0.998
_refine_diff_density_max         0.221
_refine_diff_density_min         -0.288
_refine_diff_density_rms         0.057