####################################################################### 
# 
# This file contains crystal structure data downloaded from the 
# Cambridge Structural Database (CSD) hosted by the Cambridge 
# Crystallographic Data Centre (CCDC).
# 
# Full information about CCDC data access policies and citation 
# guidelines are available at http://www.ccdc.cam.ac.uk/access/V1 
# 
# Audit and citation data items may have been added by the CCDC. 
# Please retain this information to preserve the provenance of 
# this file and to allow appropriate attribution of the data. 
# 
#######################################################################

data_1-at-290K
_audit_block_doi                 10.5517/ccv2vj8
_database_code_depnum_ccdc_archive 'CCDC 777310'
loop_
_citation_id
_citation_doi
_citation_year
1 10.1021/ja206891q 2011
2 10.1021/ja104263m 2010
_audit_update_record             
;
2010-05-17 deposited with the CCDC.	2022-08-24 downloaded from the CCDC.
;
#TrackingRef 'Zn-290K.cif'


_audit_creation_method           SHELXL-97
_chemical_name_systematic        
;
?
;
_chemical_name_common            ?
_chemical_melting_point          ?
_chemical_formula_moiety         ?
_chemical_formula_sum            'C3 H7 N O6 Zn'
_chemical_formula_weight         218.47

loop_
_atom_type_symbol
_atom_type_description
_atom_type_scat_dispersion_real
_atom_type_scat_dispersion_imag
_atom_type_scat_source
C C 0.0033 0.0016 'International Tables Vol C Tables 4.2.6.8 and 6.1.1.4'
H H 0.0000 0.0000 'International Tables Vol C Tables 4.2.6.8 and 6.1.1.4'
N N 0.0061 0.0033 'International Tables Vol C Tables 4.2.6.8 and 6.1.1.4'
O O 0.0106 0.0060 'International Tables Vol C Tables 4.2.6.8 and 6.1.1.4'
Zn Zn 0.2839 1.4301 'International Tables Vol C Tables 4.2.6.8 and 6.1.1.4'

_symmetry_cell_setting           Hexagonal
_symmetry_space_group_name_H-M   'P 6(3)22'

loop_
_symmetry_equiv_pos_as_xyz
'x, y, z'
'-y, x-y, z'
'-x+y, -x, z'
'-x, -y, z+1/2'
'y, -x+y, z+1/2'
'x-y, x, z+1/2'
'y, x, -z'
'x-y, -y, -z'
'-x, -x+y, -z'
'-y, -x, -z+1/2'
'-x+y, y, -z+1/2'
'x, x-y, -z+1/2'

_cell_length_a                   7.3084(2)
_cell_length_b                   7.3084(2)
_cell_length_c                   8.1705(3)
_cell_angle_alpha                90.00
_cell_angle_beta                 90.00
_cell_angle_gamma                120.00
_cell_volume                     377.94(2)
_cell_formula_units_Z            2
_cell_measurement_temperature    290(2)
_cell_measurement_reflns_used    2918
_cell_measurement_theta_min      3.395
_cell_measurement_theta_max      29.131

_exptl_crystal_description       'hexagonal block'
_exptl_crystal_colour            colorless
_exptl_crystal_size_max          0.30
_exptl_crystal_size_mid          0.30
_exptl_crystal_size_min          0.26
_exptl_crystal_density_meas      ?
_exptl_crystal_density_diffrn    1.920
_exptl_crystal_density_method    'not measured'
_exptl_crystal_F_000             220
_exptl_absorpt_coefficient_mu    3.235
_exptl_absorpt_correction_type   multi-scan
_exptl_absorpt_correction_T_min  0.375
_exptl_absorpt_correction_T_max  0.446
_exptl_absorpt_process_details   
;
multi-scan from symmetry-related measurements
Sortav (Blessing 1995, 1997)
;

_exptl_special_details           
;
?
;

_diffrn_ambient_temperature      290(2)
_diffrn_radiation_wavelength     0.71073
_diffrn_radiation_type           MoK\a
_diffrn_radiation_source         'fine-focus sealed tube'
_diffrn_radiation_monochromator  graphite
_diffrn_measurement_device_type  'NONIUS KappaCCD'
_diffrn_measurement_method       CCD
_diffrn_detector_area_resol_mean 9
_diffrn_standards_number         ?
_diffrn_standards_interval_count ?
_diffrn_standards_interval_time  ?
_diffrn_standards_decay_%        ?
_diffrn_reflns_number            6989
_diffrn_reflns_av_R_equivalents  0.0498
_diffrn_reflns_av_sigmaI/netI    0.0172
_diffrn_reflns_limit_h_min       -9
_diffrn_reflns_limit_h_max       9
_diffrn_reflns_limit_k_min       -9
_diffrn_reflns_limit_k_max       9
_diffrn_reflns_limit_l_min       -11
_diffrn_reflns_limit_l_max       11
_diffrn_reflns_theta_min         4.99
_diffrn_reflns_theta_max         29.09
_reflns_number_total             341
_reflns_number_gt                316
_reflns_threshold_expression     >2sigma(I)

_computing_data_collection       'KappaCCD (Nonius B. V., 1998)'
_computing_cell_refinement       'HKL Scalepack (Otwinowski & Minor, 1997)'
_computing_data_reduction        
'HKL Denzo (Otwinowski & Minor, 1997) & maXus (Mackay et al., 1998)'
_computing_structure_solution    'SHELXS-97 (Sheldrick, 1997)'
_computing_structure_refinement  'SHELXL-97 (Sheldrick, 1997)'
_computing_molecular_graphics    'Bruker SHELXTL V5.1 (Sheldrick, 1998)'
_computing_publication_material  'SHELXL-97 (Sheldrick, 1997)'

_refine_special_details          
;
Refinement of F^2^ against ALL reflections. The weighted R-factor wR and
goodness of fit S are based on F^2^, conventional R-factors R are based
on F, with F set to zero for negative F^2^. The threshold expression of
F^2^ > 2sigma(F^2^) is used only for calculating R-factors(gt) etc. and is
not relevant to the choice of reflections for refinement. R-factors based
on F^2^ are statistically about twice as large as those based on F, and R-
factors based on ALL data will be even larger.
;

_refine_ls_structure_factor_coef Fsqd
_refine_ls_matrix_type           full
_refine_ls_weighting_scheme      calc
_refine_ls_weighting_details     
'calc w=1/[\s^2^(Fo^2^)+(0.0322P)^2^+0.0000P] where P=(Fo^2^+2Fc^2^)/3'
_atom_sites_solution_primary     direct
_atom_sites_solution_secondary   difmap
_atom_sites_solution_hydrogens   difmap
_refine_ls_hydrogen_treatment    refined
_refine_ls_extinction_method     SHELXL
_refine_ls_extinction_coef       1.03(5)
_refine_ls_extinction_expression Fc^*^=kFc[1+0.001xFc^2^\l^3^/sin(2\q)]^-1/4^
_refine_ls_abs_structure_details 'Flack H D (1983), Acta Cryst. A39, 876-881'
_refine_ls_abs_structure_Flack   -0.02(3)
_refine_ls_number_reflns         341
_refine_ls_number_parameters     26
_refine_ls_number_restraints     0
_refine_ls_R_factor_all          0.0220
_refine_ls_R_factor_gt           0.0191
_refine_ls_wR_factor_ref         0.0453
_refine_ls_wR_factor_gt          0.0444
_refine_ls_goodness_of_fit_ref   1.080
_refine_ls_restrained_S_all      1.080
_refine_ls_shift/su_max          0.000
_refine_ls_shift/su_mean         0.000

loop_
_atom_site_label
_atom_site_type_symbol
_atom_site_fract_x
_atom_site_fract_y
_atom_site_fract_z
_atom_site_U_iso_or_equiv
_atom_site_adp_type
_atom_site_occupancy
_atom_site_symmetry_multiplicity
_atom_site_calc_flag
_atom_site_refinement_flags
_atom_site_disorder_assembly
_atom_site_disorder_group
Zn1 Zn 0.6667 0.3333 0.7500 0.0216(2) Uani 1 6 d S . .
N1 N 1.0000 0.0000 0.7500 0.0620(14) Uani 1 6 d S . .
O1 O 0.88983(17) 0.30555(17) 0.89488(13) 0.0316(3) Uani 1 1 d . . .
C1 C 1.0000 0.4377(4) 1.0000 0.0351(6) Uani 1 2 d S . .
H1 H 1.0000 0.570(4) 1.0000 0.047(8) Uiso 1 2 d S . .
H2 H 0.977(6) 0.109(5) 0.826(3) 0.087(13) Uiso 0.67 1 d P . .

loop_
_atom_site_aniso_label
_atom_site_aniso_U_11
_atom_site_aniso_U_22
_atom_site_aniso_U_33
_atom_site_aniso_U_23
_atom_site_aniso_U_13
_atom_site_aniso_U_12
Zn1 0.0236(3) 0.0236(3) 0.0178(3) 0.000 0.000 0.01178(13)
N1 0.0387(13) 0.0387(13) 0.109(5) 0.000 0.000 0.0193(6)
O1 0.0340(7) 0.0352(7) 0.0286(6) -0.0083(6) -0.0118(5) 0.0197(6)
C1 0.0363(13) 0.0289(8) 0.0427(14) -0.0098(7) -0.0195(13) 0.0181(6)

_geom_special_details            
;
All esds (except the esd in the dihedral angle between two l.s. planes)
are estimated using the full covariance matrix. The cell esds are taken
into account individually in the estimation of esds in distances, angles
and torsion angles; correlations between esds in cell parameters are only
used when they are defined by crystal symmetry. An approximate (isotropic)
treatment of cell esds is used for estimating esds involving l.s. planes.
;

loop_
_geom_bond_atom_site_label_1
_geom_bond_atom_site_label_2
_geom_bond_distance
_geom_bond_site_symmetry_2
_geom_bond_publ_flag
Zn1 O1 2.1056(11) 10_666 ?
Zn1 O1 2.1056(11) . ?
Zn1 O1 2.1056(11) 3_665 ?
Zn1 O1 2.1056(11) 12_556 ?
Zn1 O1 2.1056(11) 11_656 ?
Zn1 O1 2.1056(11) 2_655 ?
N1 H2 1.08(2) . ?
O1 C1 1.2414(17) . ?
C1 O1 1.2414(17) 9_767 ?
C1 H1 0.97(3) . ?

loop_
_geom_angle_atom_site_label_1
_geom_angle_atom_site_label_2
_geom_angle_atom_site_label_3
_geom_angle
_geom_angle_site_symmetry_1
_geom_angle_site_symmetry_3
_geom_angle_publ_flag
O1 Zn1 O1 82.07(6) 10_666 . ?
O1 Zn1 O1 95.74(6) 10_666 3_665 ?
O1 Zn1 O1 91.49(4) . 3_665 ?
O1 Zn1 O1 91.49(4) 10_666 12_556 ?
O1 Zn1 O1 95.74(6) . 12_556 ?
O1 Zn1 O1 170.42(6) 3_665 12_556 ?
O1 Zn1 O1 91.49(4) 10_666 11_656 ?
O1 Zn1 O1 170.42(6) . 11_656 ?
O1 Zn1 O1 82.07(6) 3_665 11_656 ?
O1 Zn1 O1 91.49(4) 12_556 11_656 ?
O1 Zn1 O1 170.42(6) 10_666 2_655 ?
O1 Zn1 O1 91.49(4) . 2_655 ?
O1 Zn1 O1 91.49(4) 3_665 2_655 ?
O1 Zn1 O1 82.07(6) 12_556 2_655 ?
O1 Zn1 O1 95.74(6) 11_656 2_655 ?
C1 O1 Zn1 123.11(13) . . ?
O1 C1 O1 126.0(2) . 9_767 ?
O1 C1 H1 116.98(12) . . ?
O1 C1 H1 116.98(13) 9_767 . ?

loop_
_geom_hbond_atom_site_label_D
_geom_hbond_atom_site_label_H
_geom_hbond_atom_site_label_A
_geom_hbond_distance_DH
_geom_hbond_distance_HA
_geom_hbond_distance_DA
_geom_hbond_angle_DHA
_geom_hbond_site_symmetry_A
N1 H2 O1 1.08(2) 1.93(3) 2.9723(10) 161(2) .
C1 H1 O1 0.97(3) 2.443(16) 3.044(2) 120.0(6) 2_655

_diffrn_measured_fraction_theta_max 0.992
_diffrn_reflns_theta_full        29.09
_diffrn_measured_fraction_theta_full 0.992
_refine_diff_density_max         0.200
_refine_diff_density_min         -0.529
_refine_diff_density_rms         0.056